 # Version information for this restart file 
 # current date 2024-11-21 20:35:31.379
 # current working dir /scratch/work/courses/CHEM-GA-2671-2024fa/students/ap8064/comp-lab-class-2024/Week12-IntroAIMD/Runs/Proton
 # Program compiled at                              Sat Dec 12 18:27:15 EST 2020
 # Program compiled on                                         cs001.nyu.cluster
 # Program compiled for                                                nyu-intel
 # Source code revision number                                       git:8c64c6e
 &GLOBAL
   PRINT_LEVEL  LOW
   PROJECT_NAME proton_new_
   RUN_TYPE  MD
   WALLTIME 21600
 &END GLOBAL
 &MOTION
   &GEO_OPT
     OPTIMIZER  BFGS
     MAX_ITER  100
     MAX_DR     3.0000000000000001E-03
     &BFGS
     &END BFGS
   &END GEO_OPT
   &MD
     ENSEMBLE  NVT
     STEPS  2000
     TIMESTEP     4.9999999999999994E-01
     STEP_START_VAL  1498
     TIME_START_VAL     7.4900000000000750E+02
     ECONS_START_VAL    -1.1025841879244936E+03
     TEMPERATURE     3.0000000000000000E+02
     &THERMOSTAT
       TYPE  GLE
       REGION  MASSIVE
       &GLE
         NDIM  5
         A_SCALE     1.0000000000000000E+00
         A_LIST     1.8595758612559999E+02    2.7263853498399998E-01    1.1526100454610001E+01   -3.6414578262600003E+01 \
             2.3173375816020001E+02
         A_LIST    -2.7809524712060002E-01    8.5951591808710006E-05    7.2189048017650004E-01   -1.9844539343859999E-01 \
             4.2409257583420001E-01
         A_LIST    -1.4825808131210000E+01   -7.2189048017650004E-01    1.3590902121280000E+00    5.1498896280349999E+00 \
            -9.9949268450990001E+00
         A_LIST    -1.0372189126880000E+01    1.9844539343859999E-01   -5.1498896280349999E+00    2.6661910891169999E+01 \
             1.1507715495310000E+01
         A_LIST     2.1801346360420001E+02   -4.2409257583420001E-01    9.9949268450990001E+00   -1.1507715495310000E+01 \
             3.0958394565589998E+02
         &THERMOSTAT_ENERGY
               1.8387285304147882E-03
              -5.0487386495676049E-04
              -2.4906204555931516E-03
               5.8711670543588309E-03
              -1.3963233020310144E-02
              -1.0826877738970135E-04
              -4.9899278657604546E-03
               6.2852033225929554E-03
               8.1574932634833773E-04
               3.9241314778969624E-03
               8.7667199400784605E-03
              -6.5245569361154412E-03
               9.9895663425019409E-04
              -3.8889651707740315E-03
               3.7278344573491535E-03
              -8.8575379048862965E-03
               3.2862414138525998E-03
              -2.1184306118687689E-03
              -2.5472115842993921E-04
              -8.4118042726658536E-04
               4.5479934054677056E-03
               3.8817842233927662E-03
              -8.3326077812884199E-03
              -3.2147731619535484E-03
              -2.0913142867504072E-03
              -1.2402997244571815E-02
              -1.0274577234303289E-03
               9.8352747367845008E-04
               2.4151244664087643E-03
               2.1896667453703859E-03
              -7.8260759287374984E-03
              -2.0822987734411651E-03
               8.1320458475139072E-03
               5.5834098639913864E-03
              -1.3971701278169886E-02
               1.4378954923332889E-02
              -2.4756692995758717E-03
              -1.3433436815510893E-03
               2.3302947589000792E-03
              -1.7939822759390136E-03
               3.7738286074139569E-04
              -5.2411867592164572E-03
               9.3445889701100626E-03
               8.3216713096637869E-03
              -4.5448877024457726E-03
               5.8928441364322392E-03
               1.6352578808378353E-02
              -8.9501244717756845E-04
              -2.5051263539895147E-03
               4.3640559605093859E-04
               4.5140891357806231E-04
              -1.5228002261834742E-03
              -1.4926286387179927E-03
               9.3778862281764679E-04
              -6.5923607285486964E-03
               3.1886491157101849E-03
              -7.6302716597006744E-04
               4.4679051928598421E-03
               6.4335286008740025E-03
              -2.2581014926606234E-03
              -9.7687148729672327E-03
              -6.8269317029971783E-03
               1.9107032195754128E-02
               6.3706375922589623E-04
               7.9267495019819556E-04
               5.7976016772790752E-03
              -1.0809238222582902E-02
               1.3873593465500843E-02
               1.3617703057849427E-02
              -2.9124291349930382E-03
              -3.6708119171119653E-03
              -1.1376900557643985E-02
               1.1784403088508370E-03
              -1.4776403539164824E-03
               6.9838959018988242E-04
              -7.9754410593099075E-03
               4.1429205803334215E-03
               1.0537365422245350E-02
               2.1770870773700317E-03
              -7.5770237960959040E-03
               3.4419987193854986E-03
              -4.2948420742549877E-03
               4.0709587284291015E-04
               8.4706892062436047E-04
               4.1909655754405525E-03
               4.0639798287701971E-03
              -3.0241502156244248E-03
               1.0613910203620979E-03
               1.2494739617251440E-03
              -5.6659948162494905E-03
               3.6220317734389829E-03
              -3.9054517714989931E-03
              -9.3369279092350558E-04
              -3.1880674694575784E-03
              -1.6284989483695802E-02
               1.0189523608465785E-02
               4.9476087911263051E-03
               1.8214194687917002E-03
               2.1077078180126749E-03
               7.3488930720612897E-03
              -7.2677830066325850E-03
              -2.8031426638107314E-03
               8.9373251371992527E-04
              -4.5135360367695157E-03
              -6.3213420967631415E-03
               9.7037990358230207E-03
              -2.5885946192035925E-03
               8.3789720449673919E-04
               3.9307160770331376E-03
              -3.9241292580452494E-03
               2.1989279874969720E-04
              -1.0976362638208219E-03
               2.5379507970160653E-03
               3.6799409069233594E-03
               7.1313521652463631E-03
               1.8164468305794730E-03
              -8.6843135322344240E-03
               7.8454478404036060E-04
               1.0707858415321737E-03
              -1.2549694438217605E-03
               1.8923251993227066E-03
               4.9460582708092150E-03
              -5.1065136057407991E-04
              -1.0298005281100860E-03
              -5.6197178910721395E-03
              -7.3195796885684762E-03
               5.7102276178107010E-04
               4.1702030129369344E-03
               1.1529445710055554E-02
               5.5258119329614219E-03
              -1.1439595385111197E-02
               1.0300050331984487E-02
               1.7989980511225754E-03
               3.6153131924464179E-04
               5.0402708688082991E-03
               7.3297493832147928E-04
              -5.5724406194437139E-03
              -5.0781199771984904E-03
               2.7426308402332200E-03
              -4.4755653635859555E-03
               6.8520636853219513E-03
               5.5489370001417563E-04
               1.2188609563778546E-02
              -4.4691211206351888E-03
               4.5449470556485237E-03
              -5.6786097321344636E-03
               3.2845060891693915E-03
              -4.1119466038327344E-04
              -1.3346802665419016E-02
               1.4085067367920558E-02
              -1.2153456966208129E-02
               1.3037654430708328E-02
               5.0571658970655613E-03
               5.4691166576598584E-03
               8.5190827718434475E-03
              -7.0885037572906572E-04
               3.2442756100273893E-03
              -3.2241846517769165E-03
              -3.4067208696863323E-03
               2.9397505651443125E-03
               2.7286516282183709E-03
              -3.0225153787459802E-03
               2.4252971518154468E-03
               5.4635578280931843E-03
               9.2177967060457933E-03
               6.3020690186727998E-02
              -2.7407307102604232E-03
               1.2247921260016796E-02
               3.2820231532205577E-02
               1.7554084965425751E-02
               6.6811372390636128E-02
               1.4672028015329540E-02
              -1.2372198476907504E-03
               3.5847277727810947E-02
              -1.5908451427004366E-03
               2.3511847146297179E-03
               7.9325343961712867E-04
               1.5685922607382064E-03
              -1.4877667017896402E-02
               2.2081213314565223E-03
              -1.0817550307964365E-02
               5.7657785068011809E-03
               6.1711279308641238E-03
              -5.3654993595926934E-03
              -4.0252220708249654E-04
              -1.0206640870699763E-03
               1.2098909698523895E-02
               3.1525114816643900E-03
              -1.0202776609369310E-02
              -3.1219791287080147E-03
              -8.8546449711446283E-03
               1.5879642958509948E-02
               6.6452074340908251E-03
              -5.6170517924111780E-03
               3.7712282531117162E-03
               9.7674230439316039E-03
              -7.2900911876453405E-03
               2.3393690832691910E-03
              -3.3332666196000922E-03
              -7.5380966907825607E-03
               3.6746031622113657E-03
               1.4914084376261301E-03
               4.4112137591007074E-03
               4.3682626660820345E-03
              -1.3935508329570507E-02
              -2.7734429565738077E-03
               9.0929297183444339E-03
               3.9951810915020798E-03
               8.4853215862354490E-04
               8.1048025144063386E-04
               1.1478529159179695E-03
               9.7013860200367385E-04
               1.2449480941383068E-03
               5.1379645934777349E-03
              -6.3410173782717473E-03
               7.2144875360716848E-03
              -1.1671886213623741E-02
               6.0240363731259650E-03
               1.5740368924803926E-03
               1.4239245155456763E-03
               1.3620158745434468E-03
              -4.5972188069335279E-03
              -8.9861273064620363E-03
              -1.8111183237256114E-03
               1.2987966435011098E-02
              -1.6081701385374863E-03
               2.7577334424492910E-05
               5.3907326676645830E-03
              -1.7341430828000993E-03
              -2.6964371777103485E-03
              -1.2290856734809231E-03
               8.7444906333587757E-03
               7.2176280176331278E-03
              -3.8735419277859022E-03
              -2.1575776543869239E-03
              -7.3722974057118477E-03
               1.4959934109484698E-03
               9.0312995319566565E-05
              -2.0919447312963114E-03
              -1.3396728721934035E-04
               5.3989407129741932E-03
               9.1546535215541354E-03
               2.0521001556936653E-03
               7.5418639654386025E-04
              -2.0700075684557924E-03
               9.6909662616093454E-04
               8.1763218259107745E-04
              -1.1934896752160741E-03
              -5.2717442927230455E-03
              -3.9285108745231966E-03
               7.3465521091931121E-03
              -3.6437054618436719E-03
              -4.0653123092174387E-03
              -1.3079399443846708E-02
               7.1536762286565966E-03
              -2.0887096038711885E-03
              -3.9459170770378901E-03
               1.8471254540347892E-03
              -3.9498816597318956E-03
               4.5333343141905199E-03
               6.3717931279286058E-03
               4.9576972493370064E-03
               1.4354647840146119E-02
              -4.6561916657084732E-03
              -5.0804510799676806E-03
               7.9629483601674879E-04
               5.5980424507366174E-03
               5.0953286992737280E-03
              -4.2862118981731971E-03
               1.1944160291454998E-02
              -1.4554179529840939E-02
              -5.7888885268349783E-03
               1.1690813480408350E-02
               6.7306264965592060E-03
               1.0876626733469868E-03
               1.5287839929942725E-03
              -1.1523456800106302E-02
               4.2803462706928900E-03
               6.6619393925888533E-03
              -5.0563916027323384E-03
               4.9986325607278056E-03
              -6.1375738166393572E-03
               7.3339607068244536E-03
              -7.4282114345179942E-03
               4.7147977106599672E-03
               6.7137762064895107E-03
              -5.9249850716659100E-03
              -1.3173770297222811E-03
              -1.7910503703771057E-02
              -7.0530616072029552E-04
               1.4982706500352765E-02
               7.5062233034928834E-04
              -5.9232493877737664E-03
              -5.3771589634088240E-03
               5.2103305619323843E-03
               1.4345048676992012E-02
              -1.2156346613399122E-02
               1.3008503970018990E-02
               9.4114828833927692E-03
              -1.4853973629771540E-02
              -6.8951888429234038E-04
              -4.8960349667483243E-03
               3.1866058341526709E-03
               5.6316837706007171E-03
              -2.9408305745250141E-03
              -7.8451457264038828E-03
              -7.5627097628631760E-04
              -3.1094710856443691E-03
               8.4216792984154500E-03
               2.6020047232942628E-03
              -2.7982897003227458E-03
              -2.5872102527786144E-03
               5.6160091963442706E-03
              -4.6015556777402400E-03
               8.6832574229261353E-04
              -2.5676213256162544E-03
              -6.2078784448931007E-03
               3.4244010794787301E-03
              -1.1455025383618776E-02
              -6.1472534874233188E-03
              -2.7569558981120389E-03
               3.0059737229782713E-03
               4.3096640889190791E-03
               2.4717092107546302E-03
              -3.6303816382878269E-03
               3.4490298902232623E-04
               8.6598931870683401E-03
               3.9469383963506516E-03
              -3.4401113731211165E-03
               3.0502957200533075E-03
              -9.0664068367219009E-03
               4.4122633816384219E-03
               2.3590748476957496E-03
               1.5633776259715631E-03
              -4.9784309940744287E-04
               1.4510551368299876E-03
               4.7733355548746194E-03
               2.7861660113689302E-03
               4.7721439073019709E-03
               1.0592831444918866E-03
              -1.4171351908122593E-02
               3.5860678927592665E-04
               2.4280574737516871E-03
               6.7192586158273905E-03
               1.1261110009051859E-04
               6.8846230089304374E-03
               2.7848730154862796E-03
              -9.8312918030366153E-03
               1.3156653802222021E-02
              -2.6548931255852737E-03
              -7.9485244357714747E-03
               1.2666718922553632E-03
              -1.1008626602289916E-02
               1.5116078858534133E-03
              -7.4635977751884633E-04
              -2.1823944624901797E-03
               4.2999586443712742E-04
              -8.3804549156058373E-04
              -4.7026915247827990E-03
              -6.3786357771939937E-03
               1.0294735857312722E-03
              -1.0163804556953073E-03
               8.7347093562924003E-03
              -4.1123027361840547E-03
              -1.6119356458181629E-02
               3.8840079605188681E-03
               9.8441489016813204E-03
               6.2534534108482373E-03
              -1.2539585015414346E-02
              -4.9181958739040821E-03
              -4.7449839844170994E-03
               5.9426112956291067E-03
              -2.3383402214609732E-03
              -2.4559961228360597E-03
              -1.2051818313734853E-03
              -3.2227079852840268E-04
              -7.3161556531732277E-03
              -6.7554026189652555E-03
               5.8635663550778748E-03
               1.9325556314079180E-03
              -1.4182703738470771E-03
               6.0325989605444549E-03
              -1.8343377981535865E-03
              -2.0133493832657739E-03
              -2.1660049205746563E-02
              -7.3096435339477543E-04
               6.3401146298177544E-03
               1.8727631350678277E-03
               7.3605971950088007E-03
              -9.4993455187908360E-04
              -8.1046505299347208E-03
               5.3930435458006349E-03
              -1.8711729365807994E-04
              -1.6315996913373752E-03
               3.5334168166784620E-03
               4.3972413152577406E-03
               2.3652756532886523E-04
               1.4735434320394675E-03
               1.4031007211429132E-03
              -3.1810439738676503E-03
              -3.3938134900231773E-03
               2.6220943221164639E-03
              -7.2745663181730796E-03
              -6.9956545886453994E-03
               1.9672530255199498E-04
               4.4711670463182295E-03
               3.9912226144652539E-03
              -5.6899967960725977E-03
              -1.3686532916744743E-03
               3.5516467441295803E-03
              -6.2132911295909401E-04
              -6.1282394789948635E-03
               7.3316553441627663E-03
              -5.2276813677630957E-03
               3.4811230844143588E-03
               9.0494304026027240E-04
              -6.7464275763330834E-04
              -1.6070225956047862E-03
              -4.0796527383805947E-04
               3.7278136110082500E-04
               2.9397516903846687E-03
              -4.1081673090014297E-03
               1.0949054053454048E-03
              -7.0649397843165155E-04
               1.2949323122923144E-02
              -9.0490217963774839E-03
               4.8388528945844545E-03
              -3.4951115210984205E-03
               1.1599462935934063E-03
               3.5648259067031750E-03
              -6.2067625490197596E-03
              -8.1744350833771375E-03
              -1.2371396314832361E-02
               8.5894553697720543E-03
               8.5387617782398291E-03
               3.8467498778125176E-03
              -6.3307910020215250E-03
              -2.8015079362746068E-04
              -6.7960546829696766E-03
               1.1734875431541445E-03
               1.1568008847369088E-02
              -3.1767143981776672E-03
              -2.2768591265745703E-03
               1.2020208716031468E-02
               4.5273580112804605E-03
               8.4337119745967817E-03
               1.4036785333447559E-03
               8.2598289652041218E-03
               3.2386131269196254E-03
              -1.1920776778970752E-02
               1.0543578042767569E-04
              -8.1790748594296348E-03
               3.1518434212098071E-03
              -3.8233267059916989E-03
              -3.1669463109071970E-03
              -5.1335379480815339E-03
              -1.5569052775656020E-02
              -3.0781681320583886E-03
              -8.3836111190501231E-03
               6.2041997758801003E-03
               1.3652226122013838E-02
               8.1863324561046238E-03
               1.9853784970086264E-03
               4.5462160900767721E-03
               4.2080618201580681E-03
               3.4474079117648715E-03
              -8.7799647582079490E-03
              -3.9019680756220239E-03
               1.0510916979002603E-02
              -5.2657098385332632E-03
              -2.5375807305020402E-03
               6.5230331638353256E-04
               9.7262935356714467E-04
              -1.3366155145206520E-04
              -4.3749321258484356E-03
               2.1038698069366876E-03
              -7.0094144521763435E-03
               8.0089939890437643E-03
              -2.3398079027074446E-03
              -3.9225983313285681E-03
               5.6117513635499589E-05
               1.4534134811665189E-03
               6.0548197126996236E-03
              -4.7337963380479175E-05
               1.5523722003086562E-03
               1.3325981723524595E-03
               5.5746913511821022E-03
              -1.2781681358662167E-02
               1.0160740311994888E-02
              -1.9740044879179835E-03
               6.9347749523131991E-03
               3.5080731768414436E-04
               5.5110257885486189E-03
              -6.1470966157019516E-03
               3.1339671511075324E-04
              -9.9825958180707348E-03
               1.7279228139829269E-03
               6.8159533716381044E-03
               2.7020357159091186E-03
               3.2432162047593620E-03
              -7.3846404872532411E-04
               1.1159667073172281E-02
              -1.1643149559593960E-02
               1.5339444021419152E-02
               9.1371888116728453E-04
              -5.9270198096662277E-03
              -4.9781434790146790E-04
               9.0581940331835775E-04
               4.9269045031676076E-03
               2.8171818420509110E-04
              -5.5432882553170361E-03
               6.6362314159737991E-03
              -7.6740174095339393E-04
              -1.1742440451577706E-02
               2.0063502052085760E-02
              -2.1123962537088002E-02
              -7.6276757828369136E-04
               3.0372767921214975E-03
               4.8804157450766635E-03
               5.0118082428940872E-03
              -1.4649783637739109E-02
               4.9235899759165064E-03
               3.4252243791632912E-03
               6.2537542706777340E-03
              -1.4542956532147073E-03
               2.4922435529667296E-03
              -2.5340060745910145E-04
              -2.2943419196644146E-03
               2.4384325813994068E-03
               3.1136376110667708E-03
               1.9283089856830707E-02
              -5.1283817830897267E-04
               1.8081300626176169E-04
              -5.0350556336109190E-03
              -1.5413915384554890E-03
               2.2569559981212494E-03
               1.8745447670617142E-03
              -3.8922871972860307E-03
               2.7776809177458687E-03
               3.6181101868357065E-03
              -1.6419757690586730E-04
              -2.8822333307362315E-03
              -6.8376253719617539E-03
              -1.8336467533617703E-03
               4.1471658367421262E-04
              -4.1968404650799939E-03
               8.2843406304032637E-03
              -6.2415348119742396E-03
               5.3623864455280045E-03
               1.1265729956762957E-02
               2.3489133781734239E-04
              -1.0069230586404344E-02
              -4.4605941891922010E-03
              -2.2168605254325457E-03
               4.9684168783134799E-03
              -6.1338995159603178E-03
               3.6497663566208531E-03
              -1.4894954476755177E-03
               7.7720864255263755E-03
              -5.5124671222110818E-04
               6.2481719844010469E-04
               2.2856630773200716E-03
               6.0513925764937321E-03
               5.7843329415562805E-03
              -7.0765881375543915E-03
              -3.6996495978799653E-03
               4.4027333050102946E-03
               4.3597174555581059E-03
               2.4372275957185883E-03
              -3.3044008955723184E-05
              -2.7776091579297031E-03
              -3.2446647542246215E-03
              -3.2102736756653020E-03
              -1.1557248881307346E-02
               7.0589671441910569E-03
               2.0656781861981602E-03
               1.2510524618508063E-02
               6.7929892374506045E-03
              -1.3830184010770366E-02
         &END THERMOSTAT_ENERGY
         &RNG_INIT
Wiener process for Thermostat # 1        1 F T T  -5.7172662461481705E-01        2048805148.0        3712979292.0         175154491.0        1956622823.0        3132414345.0          32373203.0             12345.0             12345.0             12345.0             12345.0             12345.0             12345.0             12345.0             12345.0             12345.0             12345.0             12345.0             12345.0
Wiener process for Thermostat # 2        1 F T T   2.6345116340970964E-01        1632970508.0         815390615.0        4091157521.0        1154924553.0        2097788034.0        1175925167.0        3692455944.0        1366884236.0        2968912127.0         335948734.0        4161675175.0         475798818.0        3692455944.0        1366884236.0        2968912127.0         335948734.0        4161675175.0         475798818.0
Wiener process for Thermostat # 3        1 F T T  -7.6849697723616106E-01        2706947223.0        4137173286.0         940018211.0         794612119.0        3204708792.0        2097002487.0        1015873554.0        1310354410.0        2249465273.0         994084013.0        2912484720.0        3876682925.0        1015873554.0        1310354410.0        2249465273.0         994084013.0        2912484720.0        3876682925.0
Wiener process for Thermostat # 4        1 F T T   2.4315789575715980E+00        4231751099.0        3431223787.0        3550633530.0        4255281453.0         968275930.0        4083983921.0        2338701263.0        1119171942.0        2570676563.0         317077452.0        3194180850.0         618832124.0        2338701263.0        1119171942.0        2570676563.0         317077452.0        3194180850.0         618832124.0
Wiener process for Thermostat # 5        1 F T T  -4.9410803949993126E-01        1108689365.0        3913408437.0        2034508882.0        2701131806.0        3759734124.0         542386196.0        1597262096.0        3906379055.0        3312112953.0        1016013135.0        4099474108.0         275305423.0        1597262096.0        3906379055.0        3312112953.0        1016013135.0        4099474108.0         275305423.0
Wiener process for Thermostat # 6        1 F T T   5.5283752408928488E-01        2618093127.0         721046529.0        4222653746.0        3367080200.0        2608994541.0        3850545420.0          97147054.0        3131372450.0         829345164.0        3691032523.0        3006063034.0        4259826321.0          97147054.0        3131372450.0         829345164.0        3691032523.0        3006063034.0        4259826321.0
Wiener process for Thermostat # 7        1 F T T  -1.7742437465858778E+00        2389267558.0         279842990.0         166973570.0        4266057913.0        3261920197.0         836626414.0         796079799.0        2105258207.0         955365076.0        2923159030.0        4116632677.0        3067683584.0         796079799.0        2105258207.0         955365076.0        2923159030.0        4116632677.0        3067683584.0
Wiener process for Thermostat # 8        1 F T T  -2.3629958507578683E-01        4141475360.0        1299302723.0         935341467.0         437896018.0        3639712373.0         939433213.0        3281794178.0        2616230133.0        1457051261.0        2762791137.0        2480527362.0        2282316169.0        3281794178.0        2616230133.0        1457051261.0        2762791137.0        2480527362.0        2282316169.0
Wiener process for Thermostat # 9        1 F T T   1.2717547317433073E-01        2526679139.0        2932348714.0        1052663274.0        3812138910.0         408135740.0          77811715.0        3777646647.0        1837464056.0        4204654757.0         664239048.0        4190510072.0        2959195122.0        3777646647.0        1837464056.0        4204654757.0         664239048.0        4190510072.0        2959195122.0
Wiener process for Thermostat # 10       1 F T T  -5.9049680097615764E-01        1190488380.0         338672696.0        2168464735.0        1714465653.0        3443769829.0        2138781143.0        4215590817.0        3862461878.0        1087200967.0        1544910132.0         936383720.0        1611370123.0        4215590817.0        3862461878.0        1087200967.0        1544910132.0         936383720.0        1611370123.0
Wiener process for Thermostat # 11       1 F T T   5.0796504572463796E-01         961685420.0        3744218709.0        1086867463.0         756229895.0        4256236223.0        1034912360.0        1683636369.0         362165168.0         814316280.0         869382050.0         980203903.0        2062101717.0        1683636369.0         362165168.0         814316280.0         869382050.0         980203903.0        2062101717.0
Wiener process for Thermostat # 12       1 F T T  -2.1361629865579959E+00        2665185508.0        3147702952.0        4084317811.0         118801098.0        1329678254.0        4264307160.0         272317999.0         166758548.0         310112982.0         201045826.0        1680231254.0         118290799.0         272317999.0         166758548.0         310112982.0         201045826.0        1680231254.0         118290799.0
Wiener process for Thermostat # 13       1 F T T  -7.6976590875025308E-01        3576710808.0         487066258.0        1370450073.0        1587258834.0         148183564.0         412236691.0        2245755202.0        1652682525.0        2865544364.0         721509566.0         209733568.0         592362218.0        2245755202.0        1652682525.0        2865544364.0         721509566.0         209733568.0         592362218.0