 # Version information for this restart file 
 # current date 2024-11-21 20:35:47.579
 # current working dir /scratch/work/courses/CHEM-GA-2671-2024fa/students/ap8064/comp-lab-class-2024/Week12-IntroAIMD/Runs/Proton
 # Program compiled at                              Sat Dec 12 18:27:15 EST 2020
 # Program compiled on                                         cs001.nyu.cluster
 # Program compiled for                                                nyu-intel
 # Source code revision number                                       git:8c64c6e
 &GLOBAL
   PRINT_LEVEL  LOW
   PROJECT_NAME proton_new_
   RUN_TYPE  MD
   WALLTIME 21600
 &END GLOBAL
 &MOTION
   &GEO_OPT
     OPTIMIZER  BFGS
     MAX_ITER  100
     MAX_DR     3.0000000000000001E-03
     &BFGS
     &END BFGS
   &END GEO_OPT
   &MD
     ENSEMBLE  NVT
     STEPS  2000
     TIMESTEP     4.9999999999999994E-01
     STEP_START_VAL  1500
     TIME_START_VAL     7.5000000000000762E+02
     ECONS_START_VAL    -1.1025841879244936E+03
     TEMPERATURE     3.0000000000000000E+02
     &THERMOSTAT
       TYPE  GLE
       REGION  MASSIVE
       &GLE
         NDIM  5
         A_SCALE     1.0000000000000000E+00
         A_LIST     1.8595758612559999E+02    2.7263853498399998E-01    1.1526100454610001E+01   -3.6414578262600003E+01 \
             2.3173375816020001E+02
         A_LIST    -2.7809524712060002E-01    8.5951591808710006E-05    7.2189048017650004E-01   -1.9844539343859999E-01 \
             4.2409257583420001E-01
         A_LIST    -1.4825808131210000E+01   -7.2189048017650004E-01    1.3590902121280000E+00    5.1498896280349999E+00 \
            -9.9949268450990001E+00
         A_LIST    -1.0372189126880000E+01    1.9844539343859999E-01   -5.1498896280349999E+00    2.6661910891169999E+01 \
             1.1507715495310000E+01
         A_LIST     2.1801346360420001E+02   -4.2409257583420001E-01    9.9949268450990001E+00   -1.1507715495310000E+01 \
             3.0958394565589998E+02
         &THERMOSTAT_ENERGY
               1.9336866816790366E-03
              -6.3340951553297507E-04
              -1.8585132959988233E-03
               5.7656183917783590E-03
              -1.4864443841182101E-02
               3.8391973879348899E-04
              -4.4064246563996975E-03
               5.6203941112035298E-03
               7.4695517447553341E-04
               3.5523196881261728E-03
               9.3783965167282737E-03
              -6.7816748535383907E-03
               8.8741230826881875E-04
              -3.9180502279457640E-03
               2.4831145819839660E-03
              -8.8577133489037372E-03
               3.2482932301814175E-03
              -2.6018367862742902E-03
              -9.3208295831884278E-04
              -7.7191718901228543E-04
               4.9436185671788034E-03
               4.8694835563739026E-03
              -8.3636542803033967E-03
              -3.0265354611370456E-03
              -2.0031324988464250E-03
              -1.2075367780137508E-02
              -1.0395000383473219E-03
               1.1223702036720440E-03
               2.4664064640726744E-03
               2.7835690458143368E-03
              -7.8833858345001492E-03
              -2.1156200353144076E-03
               7.9850494532841196E-03
               5.0809152867858382E-03
              -1.4372710885233515E-02
               1.4678026706629954E-02
              -2.5146900058257435E-03
              -8.7770881925255798E-04
               2.7967036374552455E-03
              -1.8213937297247634E-03
               4.3062831273566669E-04
              -5.2383537422234167E-03
               9.4109718729116880E-03
               7.5821595434084942E-03
              -3.1941818359989050E-03
               5.9677607600498632E-03
               1.6316971990586401E-02
              -1.0347954476778217E-03
              -1.5683079040251639E-03
               4.2542653030259119E-04
               1.5693923272982785E-03
              -1.7528052182899068E-03
              -1.2363604959910600E-03
               1.1297863846946705E-03
              -5.0129541501052755E-03
               3.2221038724262203E-03
              -8.3016781584362913E-04
               4.4278197313037618E-03
               6.2305689305137421E-03
              -2.1210948102172245E-03
              -9.7314649437695022E-03
              -7.3933411960699115E-03
               1.8338482324592110E-02
               7.0829149438279989E-04
               1.1277244897184820E-03
               5.6380306656312988E-03
              -1.0887252946403683E-02
               1.4236841961759186E-02
               1.3751166017356391E-02
              -2.9034915410299654E-03
              -2.4889956388699894E-03
              -1.0591356376061354E-02
               1.2939605107768742E-03
              -1.3127173324077024E-03
               5.7795732792713297E-04
              -8.7900825722931966E-03
               3.9488562893230886E-03
               1.0562199508207470E-02
               2.1934746464002198E-03
              -8.1590167210440403E-03
               3.5170100275011989E-03
              -4.2401429745929321E-03
              -1.0072384391682351E-04
               1.0341247502650046E-03
               4.9589114890226677E-03
               5.7509817203920972E-03
              -2.5156818045158776E-03
               1.1548673152645349E-03
               1.2302168950296196E-03
              -5.8049361070741162E-03
               3.6257944071187535E-03
              -3.6156849882349757E-03
              -1.2520044658646744E-03
              -3.2425172409140000E-03
              -1.6414093011179791E-02
               1.0118829888994266E-02
               4.8179190747798476E-03
               1.1044053869122615E-03
               1.6003723254962294E-03
               7.7197757378260866E-03
              -7.4177774059693957E-03
              -2.7640737469854376E-03
               9.3152697601547635E-04
              -4.5309240323996294E-03
              -6.4174582678473788E-03
               1.0370383661069443E-02
              -2.7020781892869166E-03
               8.7687781152788209E-04
               3.6771055002734697E-03
              -3.8833381492339707E-03
               3.0033199368350943E-04
              -1.1481943873715343E-03
               2.2475665782829869E-03
               4.5275616757237368E-03
               7.1816692900618043E-03
               2.0398409575909529E-03
              -9.0508638126008314E-03
               4.9052982180780970E-04
               1.0196570572338583E-03
              -1.1947930722452480E-03
               2.6312654500366501E-03
               4.9818955817915499E-03
              -6.7086593899227682E-04
              -9.0186231697553525E-04
              -6.9366664839651555E-03
              -7.8425325909590206E-03
               8.3764475744847180E-04
               3.7095813053563301E-03
               1.0957787762935690E-02
               6.0291715509767189E-03
              -1.1201140082703108E-02
               1.0379954357185290E-02
               1.9085274738172792E-03
              -3.3412937752366528E-04
               5.6437412256027273E-03
               5.5308647433766317E-04
              -4.0549415462597504E-03
              -4.7252574724863947E-03
               3.0178303377268881E-03
              -4.5191573356657281E-03
               6.9674123356297359E-03
              -9.3011771201761918E-04
               1.1573956964966952E-02
              -4.5794442992242897E-03
               4.8507528536856255E-03
              -6.0347690258355105E-03
               4.0052874948676908E-03
              -6.6074996977403275E-04
              -1.3210765732047568E-02
               1.3861947087259869E-02
              -1.1943998663595240E-02
               1.2827788002059030E-02
               5.0759676185010635E-03
               5.3148854478472004E-03
               8.3726125039904897E-03
               7.8391105901998940E-04
               3.0083283146792538E-03
              -4.2659221265715312E-03
              -3.6034915086228278E-03
               3.1123695292534616E-03
               2.9595219449968027E-03
              -3.0699782767808379E-03
               3.1634174904875091E-03
               5.9024877872091812E-03
               9.1272067730222423E-03
               6.2951526647716777E-02
              -2.6566990851284466E-03
               1.2415718568041736E-02
               3.2811718755888279E-02
               1.7738697874815003E-02
               6.7189265777252330E-02
               1.4715757478559756E-02
              -5.7649152213533014E-04
               3.5411910033036564E-02
              -1.2685768748960597E-03
               3.4318516965736109E-03
               7.2396535033067780E-04
               1.5223378621352797E-03
              -1.4910444488613239E-02
               2.4198427264793473E-03
              -1.0725824489182795E-02
               5.5491108226775228E-03
               6.7609582687310141E-03
              -4.9121564562522504E-03
              -3.3398396277047558E-04
              -7.1374912605947337E-04
               1.2338551010486275E-02
               2.7916590993026531E-03
              -1.0011954058093069E-02
              -3.1809629592999432E-03
              -7.5962564018647125E-03
               1.5932918109462828E-02
               6.4798927713814085E-03
              -4.8724637496005896E-03
               3.7994815647997750E-03
               9.8947187798025613E-03
              -7.1723963731809698E-03
               2.2602131369056921E-03
              -3.5933474230909136E-03
              -7.6545026944550921E-03
               3.9631933396973937E-03
               1.4679343482872217E-03
               3.9029849727744126E-03
               5.5194955309432660E-03
              -1.3921443302416601E-02
              -2.5855325209221871E-03
               9.4278856895297376E-03
               3.9208932377560153E-03
               9.3948868631167539E-04
               7.7550178529614761E-04
               1.0874662267998736E-03
              -1.4875969022494647E-05
               1.4720463430748765E-03
               5.7217682946183474E-03
              -6.1894243312869846E-03
               7.1285624072206415E-03
              -1.0206785153281193E-02
               5.4558798109007947E-03
               1.2119753104110843E-03
               1.4359747279099645E-03
               1.0679305603864789E-03
              -4.6390740408714581E-03
              -8.9551435756284308E-03
              -2.5834420257591674E-03
               1.2700470342105757E-02
              -1.5957871417254467E-03
               4.0841205874169768E-04
               5.4605020908034150E-03
              -1.5626114717208317E-03
              -2.2333482036793655E-03
              -1.1529470668012083E-03
               8.5897460411143330E-03
               7.3070547041526185E-03
              -3.4406660366290394E-03
              -2.1834490807108760E-03
              -6.9952250580259520E-03
               1.3874228694092236E-03
               8.4997513133580778E-05
              -2.2287099566169642E-03
               1.6362341543402578E-04
               5.3639571972032086E-03
               9.1316412669343507E-03
               1.9979134044700820E-03
               9.1103720549288536E-04
              -2.0773565020685528E-03
               8.5587134703916750E-04
              -6.5765225518431476E-05
              -1.3508276081113076E-03
              -5.3449145910694183E-03
              -4.2341991105220829E-03
               6.7821533722460707E-03
              -3.4055685908493004E-03
              -5.6122638204913360E-04
              -1.3456151941655023E-02
               7.1788990549800230E-03
              -1.6609329929310186E-03
              -2.8612822251033706E-03
               1.8640235434892263E-03
              -3.7152738266994462E-03
               4.7700893814526177E-03
               6.3451860642197598E-03
               5.1545579650484064E-03
               1.3627971468588415E-02
              -4.9496171326739299E-03
              -6.3073034867759800E-03
               4.7798574396797425E-05
               4.2232449880165541E-03
               5.2248457859313761E-03
              -4.2638634228124731E-03
               1.2102326730452488E-02
              -1.4329861360874321E-02
              -6.0542999197467015E-03
               1.1395958791801396E-02
               6.7319280915379143E-03
               1.1589546442390239E-03
               1.7118497539857168E-03
              -1.1353120322149936E-02
               4.4698870044053091E-03
               6.1934577999852814E-03
              -5.1132314850008478E-03
               4.1732393481901300E-03
              -6.0867249740634826E-03
               6.8898574535217940E-03
              -7.4519474164150565E-03
               4.6958470148041730E-03
               7.3345197127723475E-03
              -5.9767142121435910E-03
              -3.4979264653763509E-04
              -1.8251677557755239E-02
              -5.3176137847759297E-04
               1.4896195549498829E-02
               2.9782870021214086E-04
              -4.1971359379827343E-03
              -5.3373137891910769E-03
               3.2959801183116968E-03
               1.4507856655429113E-02
              -1.2447174059185162E-02
               1.3183827904848207E-02
               9.7692645963094217E-03
              -1.4797401067562848E-02
              -6.8334703719984027E-04
              -4.8209794413767550E-03
               3.1891848794576728E-03
               4.7923587826896406E-03
              -2.7478109394479429E-03
              -7.3567212044192342E-03
              -9.7275885188972976E-05
              -3.1511306976524647E-03
               8.3874403506400477E-03
               2.7515666526044813E-03
              -2.2942402650920533E-03
              -2.6890846673018371E-03
               5.6500293727604891E-03
              -4.4970010511661187E-03
               6.2300701939306232E-04
              -2.4988141825840527E-03
              -6.1336319767764007E-03
               3.3430786975978122E-03
              -1.1386033827928053E-02
              -7.7116133777320912E-03
              -4.3770877546548733E-03
               2.4470705317317133E-03
               4.2052288782812490E-03
               2.6465207937808955E-03
              -4.1170822033420231E-03
               5.8522449952368692E-04
               8.2610413228512113E-03
               1.8632895248551109E-03
              -3.1853492689069784E-03
               2.5942044433129676E-03
              -9.4755657215873316E-03
               4.1642646175556455E-03
               2.5615251416646286E-03
               1.4776626794904869E-03
              -4.6648133974870425E-04
               9.9045488345545028E-04
               4.7682663033282099E-03
               2.8669189335244778E-03
               4.7208834375070622E-03
               9.8560854971970076E-04
              -1.4399924467650656E-02
              -2.9571754981080412E-05
               2.3706407387044477E-03
               6.6767846049571589E-03
               2.1429704843590661E-04
               7.7506798378241624E-03
               2.6745474674400582E-03
              -9.5015916521788042E-03
               1.3149791643946137E-02
              -2.6819315019490685E-03
              -6.5748196542000569E-03
               1.3430783137074684E-03
              -1.0608036534773196E-02
               1.5132398059965980E-03
              -8.1236958601129349E-04
              -2.1894376391438258E-03
               1.8536559128845547E-03
              -1.0975997329553066E-03
              -4.6336392737766179E-03
              -6.1719029674327554E-03
               1.2512458822582656E-03
              -9.2133149227818995E-04
               8.6401170366728255E-03
              -4.1856950681252803E-03
              -1.6110145846554874E-02
               3.9778521842671628E-03
               1.0003544216022725E-02
               5.6727693097726496E-03
              -1.2469834946044572E-02
              -4.9133049658808070E-03
              -4.6761914610743442E-03
               6.6480001352941468E-03
              -2.8767324593649071E-03
              -2.6718050820982043E-03
              -2.0973504152031232E-03
              -8.5918634852559799E-04
              -7.3771565508362795E-03
              -6.7459226554029174E-03
               5.3243761121364594E-03
               1.8621393870126989E-03
              -6.5070816098961926E-04
               6.2362173170880490E-03
              -1.5836536381169837E-03
              -1.6182591650795537E-03
              -2.1838291031195549E-02
              -2.8241663926479487E-04
               7.4591259054316884E-03
               1.5394833417395732E-03
               7.5315901205019438E-03
              -8.3674381803792650E-04
              -7.4440247029855158E-03
               5.5174667672788814E-03
               2.7992677466879862E-04
              -1.3604145705145723E-03
               3.4952745678068094E-03
               4.4351200181978936E-03
              -6.2205052304533889E-04
               1.0036506082710132E-03
               1.5991974708216448E-03
              -3.3735887387407581E-03
              -5.5968914223184099E-03
               2.3285176176967262E-03
              -7.4157886737270485E-03
              -6.5737781839291590E-03
               2.2944952439096561E-04
               4.3904085040696646E-03
               3.5361664843143719E-03
              -5.5747179185421545E-03
              -2.0961210352069357E-03
               3.6432185121452023E-03
              -3.1413891030135019E-04
              -6.4123740431077407E-03
               7.5813728480893265E-03
              -5.5168260554688524E-03
               3.3951493937449759E-03
               7.5958426360663684E-04
              -4.7966968359176951E-05
              -1.7500363872844042E-03
              -3.2978021233231211E-04
               4.4303613209060143E-04
               2.7087030233675581E-03
              -4.0595231672696484E-03
               1.3045044566391620E-03
              -1.1282158819922901E-03
               1.2960290742852754E-02
              -9.3720818931309902E-03
               4.9867898775628619E-03
              -3.6848178429084097E-03
               1.6932011833301942E-03
               2.3458168938805687E-03
              -6.2131915439254384E-03
              -8.0423837219854490E-03
              -1.2520208699220046E-02
               8.5262869504786586E-03
               9.8701577388856411E-03
               3.8275183578008226E-03
              -6.0680070537995137E-03
              -4.1194138267550384E-04
              -6.8190964107353678E-03
               1.7768297789774459E-03
               1.2124068363893851E-02
              -2.9431217648638827E-03
              -2.5737629213236934E-03
               1.1711595940110654E-02
               4.8961754795041881E-03
               8.3635111718416977E-03
               1.5044029757556756E-03
               8.0100548344374800E-03
               2.0160033447660123E-03
              -1.1752099147108388E-02
               3.9254263672442889E-04
              -9.4857427785753883E-03
               2.9710018960603952E-03
              -3.8543379683469129E-03
              -3.7356682196636277E-03
              -5.2404012929511126E-03
              -1.4881247968022546E-02
              -3.3574072690503113E-03
              -8.0285068523661025E-03
               6.8024926445082838E-03
               1.3743965478290189E-02
               8.1142205861242205E-03
               1.8189865491247507E-03
               4.7967515414132104E-03
               3.6204526092803876E-03
               3.4973949236263967E-03
              -8.7224416112666996E-03
              -3.8456504050324138E-03
               1.0242453249756466E-02
              -5.8175331889170710E-03
              -1.7347868416768878E-03
               6.2439316913941764E-04
               1.0515217971609871E-03
              -3.0625540868614706E-04
              -4.0924144623894938E-03
               2.1854222392351662E-03
              -7.0009058554768612E-03
               8.2527686964359963E-03
              -1.9129735419498011E-03
              -4.0352754394568958E-03
              -6.9105738879798103E-04
               1.4949672357248843E-03
               5.9347418645294518E-03
              -3.5439562386636490E-04
               1.5391714602613997E-03
               2.0232331096852771E-03
               5.6365012937338518E-03
              -1.2919387790370091E-02
               1.0120807889268488E-02
              -1.9771805269707529E-03
               7.0274661091263985E-03
               1.8262506820962599E-03
               5.2396012508268966E-03
              -6.1119659514733511E-03
              -4.8732035893769149E-04
              -9.9246655138901640E-03
               1.5671111362956962E-03
               6.8249988120530911E-03
               2.2892707217648735E-03
               3.2078352687266751E-03
              -6.9983500175983641E-04
               1.1134761896057065E-02
              -1.1913220456151114E-02
               1.5442556650259282E-02
               2.6316720374116457E-03
              -6.2081971612455555E-03
              -6.2170839358880912E-04
               7.4792806888009772E-04
               4.9144178996571343E-03
               5.7826301274898251E-04
              -6.1796768401459756E-03
               6.7442725933469817E-03
              -2.1593109846922923E-03
              -1.1956204213108442E-02
               1.9841131907555778E-02
              -2.1116899789687445E-02
              -7.7460819944818473E-04
               3.2667971514111515E-03
               4.9201983187035676E-03
               4.1778596434808128E-03
              -1.4606243958931699E-02
               4.3778248906610525E-03
               3.4157132599104230E-03
               6.0445654617715915E-03
              -1.6048728984815394E-03
               2.2984888804292412E-03
               7.5443687577178044E-05
              -3.2805422286046183E-03
               2.3676951780784924E-03
               2.5382716157680662E-03
               1.9194475664939075E-02
              -5.7938672119527601E-04
               1.1803996108493614E-04
              -4.3048654251889818E-03
              -1.4229823818308210E-03
               2.1256818073781890E-03
               2.3621565874432301E-03
              -3.8186511471131656E-03
               2.4198626296863326E-03
               3.5484647011133717E-03
               5.6085283272113199E-04
              -2.2614659536277812E-03
              -6.8891660626090399E-03
              -1.6710675104067221E-03
               4.5189955542321997E-04
              -4.4941477623002815E-03
               7.8032435859806508E-03
              -6.5823156542052855E-03
               4.7137349233517022E-03
               1.1056468578416278E-02
              -4.3921895539101875E-04
              -9.9838518406663544E-03
              -4.2704608727792649E-03
              -1.9435205744548489E-03
               5.1562516471312693E-03
              -6.0876475991767038E-03
               3.8854897988472004E-03
              -1.5587307449395600E-03
               7.4279083961851997E-03
              -9.0474252299847183E-04
               1.6671566832416303E-03
               2.5734995086712257E-03
               6.0282672433842029E-03
               5.5446228195797764E-03
              -7.1317590487583486E-03
              -4.2101087112725102E-03
               3.4413336475581616E-03
               4.3805897969745461E-03
               2.4380456881170852E-03
              -5.8641598824589838E-04
              -2.6193520028301503E-03
              -3.2958240157753998E-03
              -2.2115426251915482E-03
              -1.1550121799358746E-02
               7.3023523676623240E-03
               2.8805089956438009E-03
               1.2546381127413792E-02
               6.6489425988017423E-03
              -1.3438617285189228E-02
         &END THERMOSTAT_ENERGY
         &RNG_INIT
Wiener process for Thermostat # 1        1 F T T   1.0570193072987602E-01        2554248455.0        3733268398.0        2096963647.0         915983833.0        1292997779.0         989563289.0             12345.0             12345.0             12345.0             12345.0             12345.0             12345.0             12345.0             12345.0             12345.0             12345.0             12345.0             12345.0
Wiener process for Thermostat # 2        1 F T T  -5.0729818522276993E-01         187792199.0        1332764939.0        1272087322.0         282682701.0         988697858.0        4086000388.0        3692455944.0        1366884236.0        2968912127.0         335948734.0        4161675175.0         475798818.0        3692455944.0        1366884236.0        2968912127.0         335948734.0        4161675175.0         475798818.0
Wiener process for Thermostat # 3        1 F T T   8.9774137220556466E-02        3755061031.0        1753083868.0        1351179932.0         343881147.0        3312142877.0        1244557929.0        1015873554.0        1310354410.0        2249465273.0         994084013.0        2912484720.0        3876682925.0        1015873554.0        1310354410.0        2249465273.0         994084013.0        2912484720.0        3876682925.0
Wiener process for Thermostat # 4        1 F T T   2.1447125495896904E-01        2430503636.0         902227617.0        3039217662.0         205693714.0        2375800914.0        4220709598.0        2338701263.0        1119171942.0        2570676563.0         317077452.0        3194180850.0         618832124.0        2338701263.0        1119171942.0        2570676563.0         317077452.0        3194180850.0         618832124.0
Wiener process for Thermostat # 5        1 F T T  -7.4974817695318574E-01        3949927612.0        4293465109.0         224208328.0         677588237.0        2173092809.0        2514687022.0        1597262096.0        3906379055.0        3312112953.0        1016013135.0        4099474108.0         275305423.0        1597262096.0        3906379055.0        3312112953.0        1016013135.0        4099474108.0         275305423.0
Wiener process for Thermostat # 6        1 F T T  -2.3195632299180402E+00        4147399821.0         968438491.0         174961265.0         382156541.0        3672303660.0        2385050302.0          97147054.0        3131372450.0         829345164.0        3691032523.0        3006063034.0        4259826321.0          97147054.0        3131372450.0         829345164.0        3691032523.0        3006063034.0        4259826321.0
Wiener process for Thermostat # 7        1 F T T  -8.3038096976097500E-03        3725962017.0        3124905816.0        1692649901.0        3685368087.0         990134651.0        3321809881.0         796079799.0        2105258207.0         955365076.0        2923159030.0        4116632677.0        3067683584.0         796079799.0        2105258207.0         955365076.0        2923159030.0        4116632677.0        3067683584.0
Wiener process for Thermostat # 8        1 F T T   7.2955713326517235E-01        1426374835.0        1022225665.0        3431852557.0        2945126969.0        1347790872.0        2047858768.0        3281794178.0        2616230133.0        1457051261.0        2762791137.0        2480527362.0        2282316169.0        3281794178.0        2616230133.0        1457051261.0        2762791137.0        2480527362.0        2282316169.0
Wiener process for Thermostat # 9        1 F T T  -8.3876742673612970E-01        3633457436.0         863053678.0         665967915.0         928783000.0        4027924725.0        3556250224.0        3777646647.0        1837464056.0        4204654757.0         664239048.0        4190510072.0        2959195122.0        3777646647.0        1837464056.0        4204654757.0         664239048.0        4190510072.0        2959195122.0
Wiener process for Thermostat # 10       1 F T T  -6.7138423863751628E-01        3282585865.0         909372753.0         488063086.0        2442536289.0         174422437.0         477575080.0        4215590817.0        3862461878.0        1087200967.0        1544910132.0         936383720.0        1611370123.0        4215590817.0        3862461878.0        1087200967.0        1544910132.0         936383720.0        1611370123.0
Wiener process for Thermostat # 11       1 F T T  -7.2169956836733329E-02        3039538231.0          25912629.0        1608189467.0        1823124278.0        2331127605.0        2449500504.0        1683636369.0         362165168.0         814316280.0         869382050.0         980203903.0        2062101717.0        1683636369.0         362165168.0         814316280.0         869382050.0         980203903.0        2062101717.0
Wiener process for Thermostat # 12       1 F T T  -6.7722400494670465E-01        2762226669.0        4262778377.0        2250707948.0        3120407528.0        3704866228.0        1185520965.0         272317999.0         166758548.0         310112982.0         201045826.0        1680231254.0         118290799.0         272317999.0         166758548.0         310112982.0         201045826.0        1680231254.0         118290799.0
Wiener process for Thermostat # 13       1 F T T  -7.3817531449270457E-01        3689403510.0         367299738.0        3636386471.0        1925893934.0        3355800516.0        3520562622.0        2245755202.0        1652682525.0        2865544364.0         721509566.0         209733568.0         592362218.0        2245755202.0        1652682525.0        2865544364.0         721509566.0         209733568.0         592362218.0