 # Version information for this restart file 
 # current date 2024-11-21 20:35:38.065
 # current working dir /scratch/work/courses/CHEM-GA-2671-2024fa/students/ap8064/comp-lab-class-2024/Week12-IntroAIMD/Runs/Proton
 # Program compiled at                              Sat Dec 12 18:27:15 EST 2020
 # Program compiled on                                         cs001.nyu.cluster
 # Program compiled for                                                nyu-intel
 # Source code revision number                                       git:8c64c6e
 &GLOBAL
   PRINT_LEVEL  LOW
   PROJECT_NAME proton_new_
   RUN_TYPE  MD
   WALLTIME 21600
 &END GLOBAL
 &MOTION
   &GEO_OPT
     OPTIMIZER  BFGS
     MAX_ITER  100
     MAX_DR     3.0000000000000001E-03
     &BFGS
     &END BFGS
   &END GEO_OPT
   &MD
     ENSEMBLE  NVT
     STEPS  2000
     TIMESTEP     4.9999999999999994E-01
     STEP_START_VAL  1499
     TIME_START_VAL     7.4950000000000750E+02
     ECONS_START_VAL    -1.1025841879244936E+03
     TEMPERATURE     3.0000000000000000E+02
     &THERMOSTAT
       TYPE  GLE
       REGION  MASSIVE
       &GLE
         NDIM  5
         A_SCALE     1.0000000000000000E+00
         A_LIST     1.8595758612559999E+02    2.7263853498399998E-01    1.1526100454610001E+01   -3.6414578262600003E+01 \
             2.3173375816020001E+02
         A_LIST    -2.7809524712060002E-01    8.5951591808710006E-05    7.2189048017650004E-01   -1.9844539343859999E-01 \
             4.2409257583420001E-01
         A_LIST    -1.4825808131210000E+01   -7.2189048017650004E-01    1.3590902121280000E+00    5.1498896280349999E+00 \
            -9.9949268450990001E+00
         A_LIST    -1.0372189126880000E+01    1.9844539343859999E-01   -5.1498896280349999E+00    2.6661910891169999E+01 \
             1.1507715495310000E+01
         A_LIST     2.1801346360420001E+02   -4.2409257583420001E-01    9.9949268450990001E+00   -1.1507715495310000E+01 \
             3.0958394565589998E+02
         &THERMOSTAT_ENERGY
               1.9396131891882709E-03
              -5.8900650886142369E-04
              -2.2222613847818072E-03
               5.8484342718438881E-03
              -1.4599794094257212E-02
               2.3441438802629996E-04
              -4.8685953442732608E-03
               5.8240065169698103E-03
               7.0977776308051932E-04
               3.8587185895360369E-03
               9.1932441012635303E-03
              -6.5793431567543843E-03
               1.0203686871319601E-03
              -3.9174695285712465E-03
               3.0059147347284930E-03
              -8.9919083162509073E-03
               3.2597306652615474E-03
              -2.7211077696209975E-03
              -5.0467089887674781E-04
              -7.7652942661883843E-04
               5.0214552205459263E-03
               4.0160886489439031E-03
              -8.3400269438150283E-03
              -3.0730798442637538E-03
              -2.0040907450922206E-03
              -1.2119561397623874E-02
              -1.0237310877707030E-03
               9.6736163619591238E-04
               2.4503090123777398E-03
               2.8585195192777383E-03
              -7.5921350426496198E-03
              -2.1300538428769013E-03
               7.4316560668308612E-03
               5.6989634722792231E-03
              -1.4232333641723275E-02
               1.3854174996266960E-02
              -2.4752655077908922E-03
              -1.1234207510687128E-03
               2.4270582846345613E-03
              -1.6893989907675367E-03
               7.6566089856560673E-04
              -5.2724092934613347E-03
               9.4103626228006967E-03
               7.6293321185782774E-03
              -4.6907452475862758E-03
               5.9178994157077737E-03
               1.6329929325289299E-02
              -1.5699853063518047E-03
              -2.4008912023331126E-03
               4.6249125606128333E-04
               8.5451957174556710E-04
              -1.7032096984296828E-03
              -1.6744906629659268E-03
               1.0209853507736190E-03
              -5.1315042818605118E-03
               3.2283128785560622E-03
              -7.7412286918213591E-04
               4.3265466229186304E-03
               6.4726596460990705E-03
              -2.6328979339501628E-03
              -9.7070743970755526E-03
              -7.2933345750086391E-03
               1.8228991505984088E-02
               5.7119428753497252E-04
               9.1470866744683551E-04
               5.5512427082305060E-03
              -1.0725290065467324E-02
               1.4176226747920493E-02
               1.3394109411594990E-02
              -2.8912580143579340E-03
              -2.5438374118748443E-03
              -1.0658944427677397E-02
               1.0990243209665863E-03
              -1.3958595920625480E-03
               6.5753958066803900E-04
              -8.1407006337107062E-03
               3.5524271168305651E-03
               1.0548022247748841E-02
               2.1377310792475282E-03
              -7.8059664729946245E-03
               3.5930530095227282E-03
              -4.2022831682508614E-03
               3.4226906369387171E-04
              -5.7320681886868286E-05
               5.0136734401624444E-03
               4.7466899165045026E-03
              -2.2099930259631053E-03
               1.1120013820914599E-03
               1.2643408247733981E-03
              -5.6633847916740211E-03
               3.6053351946097757E-03
              -3.5649582528126155E-03
              -1.1320903201209856E-03
              -2.8592453576784843E-03
              -1.5883912488452584E-02
               1.0034124658379882E-02
               4.8321499516575323E-03
               1.7687525158955695E-03
               2.2925766363571382E-03
               7.5371793427378049E-03
              -7.3262786148418756E-03
              -3.0021423673730224E-03
               8.0135225427624890E-04
              -4.5119830626240047E-03
              -6.2300314348803787E-03
               1.0136653005943703E-02
              -2.6039829569330245E-03
               9.1343756594601630E-04
               3.9117019084583780E-03
              -3.9478605270993816E-03
               3.3451365000350538E-04
              -1.4464033777562349E-03
               2.3797924778396497E-03
               4.4133416197281615E-03
               6.7997838003845444E-03
               2.0185152567464282E-03
              -8.7515559169511186E-03
               3.6475035611951848E-04
               1.0751774096159348E-03
              -1.0898497647495236E-03
               1.7718715570454720E-03
               4.9381037834467624E-03
              -6.9705710220100043E-04
              -9.2122459820819511E-04
              -6.1996695307471247E-03
              -7.5694712585653856E-03
               8.6122362363661093E-04
               3.8596183454790694E-03
               1.1243431665090085E-02
               5.9140844828751418E-03
              -1.1297766898781121E-02
               1.0427516061122008E-02
               1.7493663771028707E-03
               1.2599753068814944E-04
               5.0124843014452761E-03
               7.5549812240203096E-04
              -3.7603057659608518E-03
              -4.7718127384488145E-03
               2.6137312637944314E-03
              -5.3593960353416096E-03
               6.8270613986943333E-03
              -1.1859373982168499E-04
               1.2407485454304095E-02
              -4.5239994809640792E-03
               4.2663699904608044E-03
              -6.9161275686133424E-03
               3.7130935271687342E-03
              -6.5857307795201591E-04
              -1.2952440475900466E-02
               1.3886758947646911E-02
              -1.2047159940764739E-02
               1.2993900518023519E-02
               5.0066002427754889E-03
               5.4568629880586798E-03
               8.4746753177438149E-03
              -2.9569311434900192E-04
               3.6561036099209310E-03
              -3.7629829743762297E-03
              -3.3872096330991946E-03
               2.9418314334396355E-03
               2.8537405979223718E-03
              -2.9580133275910348E-03
               3.0915143774872325E-03
               5.3569238111332903E-03
               9.1971249759525888E-03
               6.2907296384314887E-02
              -2.7656062581353849E-03
               1.2390831689780496E-02
               3.2839330725139060E-02
               1.7856656375919325E-02
               6.7048727762419394E-02
               1.4662758208222503E-02
              -1.5121824915687531E-03
               3.4965417787855772E-02
              -1.2041556373221561E-03
               3.3373180999916371E-03
               7.9129638951283814E-04
               1.5625202770373800E-03
              -1.4891703313960126E-02
               2.2349144492172829E-03
              -1.0855736649552668E-02
               5.2716707306130796E-03
               6.5753724237118463E-03
              -5.1222212320287328E-03
              -1.6600341983083160E-04
              -8.1487444267590379E-04
               1.2460314527064413E-02
               2.7320820777249140E-03
              -1.0201279190078859E-02
              -3.1705566469778590E-03
              -8.1770790484816270E-03
               1.5758622430638854E-02
               6.6415333526629533E-03
              -4.8741695923120183E-03
               3.7280608891149445E-03
               9.6311383019219640E-03
              -7.3069609053846773E-03
               2.1172547597760895E-03
              -3.6450034696387176E-03
              -7.7394143323368456E-03
               3.7216692944758460E-03
               1.4196183697399831E-03
               4.0625941982396566E-03
               5.4478661161471370E-03
              -1.4057320602819163E-02
              -2.7854679597657788E-03
               9.3873282224345694E-03
               4.1217777769178392E-03
               9.8830931167535061E-04
               7.9636735087579953E-04
               1.1459704300099747E-03
               3.4584266690441143E-04
               9.7949308860085420E-04
               5.4527931612627549E-03
              -6.1561619549475206E-03
               7.0942482301456109E-03
              -1.1110725442298870E-02
               6.0504005807301186E-03
               1.7459947488912965E-03
               1.4298368367647910E-03
               1.4919457141439481E-03
              -4.6252997043792826E-03
              -8.9526858024229546E-03
              -3.3553068949645840E-03
               1.3041907423836192E-02
              -1.6032487613107478E-03
               3.7970352364494165E-04
               5.2946555175115637E-03
              -1.1867105595338504E-03
              -2.5385902095676691E-03
              -1.3767661070237032E-03
               8.6901892817876931E-03
               7.2539310988648555E-03
              -3.8510856723247546E-03
              -2.0765990604429893E-03
              -7.0088234634509607E-03
               1.5386106778168009E-03
               2.3427054400584441E-04
              -2.3054378665659904E-03
               1.3166586063500043E-04
               4.9475218557385276E-03
               9.1200797067774331E-03
               2.0327901092412732E-03
               8.3955530017247929E-04
              -1.9331156808670680E-03
               1.0978196755486310E-03
               9.5117444224992076E-04
              -1.3504109099068970E-03
              -5.2104213468716683E-03
              -4.0581078150878705E-03
               7.3537570180268082E-03
              -3.4558906697024659E-03
              -3.0452140566679191E-03
              -1.3321157436981129E-02
               7.2608922281960052E-03
              -1.7344585680442006E-03
              -3.2431606107288825E-03
               1.9623779022488281E-03
              -4.0021659295872095E-03
               4.8814837590981800E-03
               6.3690442462816382E-03
               5.2580706949567442E-03
               1.3941953744563739E-02
              -5.5365371597733042E-03
              -6.4122779418987388E-03
               6.3205021682138864E-04
               5.4933710031044442E-03
               5.2146153500359921E-03
              -4.2756234021849365E-03
               1.2135086461370310E-02
              -1.4275945607757435E-02
              -5.8790722418770201E-03
               1.1783107329320018E-02
               6.7480765585814714E-03
               1.4109420500499920E-03
               1.7226706374982269E-03
              -1.1384916208238722E-02
               4.4380366878809495E-03
               6.5017579559364068E-03
              -5.2458027063693813E-03
               4.2973019720569895E-03
              -6.1275090648936562E-03
               7.0302800441861425E-03
              -7.5898123725203978E-03
               4.7202595704935787E-03
               7.1369338380541771E-03
              -6.0223834121070265E-03
              -9.2058195388424846E-04
              -1.7986605770992811E-02
              -9.8335356662119459E-04
               1.4973737031063214E-02
               1.5930657548588411E-04
              -5.3404359279339356E-03
              -5.3304550586854658E-03
               4.6220734902254713E-03
               1.4423601189609397E-02
              -1.2475854219474130E-02
               1.2830248128921175E-02
               9.6670021862497509E-03
              -1.4839437134457841E-02
              -7.0566054380407175E-04
              -4.5755667697777846E-03
               3.1708721661327160E-03
               5.3152703994999431E-03
              -2.8728330118006325E-03
              -7.4475869931357706E-03
              -9.1579471122432286E-04
              -3.5061835938890382E-03
               8.4254505089864564E-03
               2.0808033042959096E-03
              -2.5100513202355830E-03
              -2.5602266909370342E-03
               5.6297294034387138E-03
              -4.4449614095346665E-03
               6.3960942128189237E-04
              -2.5695972239833929E-03
              -6.1143723558658124E-03
               3.3383229626224036E-03
              -1.1446022846459179E-02
              -5.5312641271817991E-03
              -3.0477748565289819E-03
               2.8432720464879420E-03
               4.3754014986855843E-03
               2.5610039567597236E-03
              -3.6943245870266136E-03
               5.5390012294711925E-04
               8.5247883149826807E-03
               2.8853677917100480E-03
              -3.6407472357079902E-03
               2.6960280329068756E-03
              -9.3039872391010043E-03
               4.1202156067478238E-03
               2.4417815277048382E-03
               1.5050949511443285E-03
              -7.4971362013625783E-04
               1.3592675631003575E-03
               4.7460314138080420E-03
               2.8509673588742795E-03
               4.6260521248189315E-03
               1.0332121680074666E-03
              -1.4104853483368198E-02
               5.4166435949757057E-04
               2.4382335209319726E-03
               6.7635399736733406E-03
               1.6936574939621377E-04
               7.1949937770332513E-03
               3.0209707874288916E-03
              -9.5708778716709110E-03
               1.3154372314828916E-02
              -2.5127245889857565E-03
              -7.0229438801679527E-03
               1.0373393897501919E-03
              -1.0346904378223427E-02
               1.4373470597443031E-03
              -6.7365929627199431E-04
              -2.1635238753540506E-03
               1.6526579021522230E-03
              -6.4539990836213438E-04
              -4.6804054970252702E-03
              -6.2687428670577666E-03
               9.9579438155017810E-04
              -8.8468181804657981E-04
               8.8160655363319750E-03
              -4.4768365105645157E-03
              -1.6257001119362936E-02
               4.2346543215498978E-03
               1.0183383115145474E-02
               5.3477224122268716E-03
              -1.2830952215727436E-02
              -4.9373985015616030E-03
              -4.5654057291026123E-03
               6.3860589265785778E-03
              -3.7476863276617277E-03
              -2.4439147393358648E-03
              -1.9700539223001766E-03
              -3.6773814601135442E-04
              -7.6854601048521563E-03
              -6.3605599432781743E-03
               5.5601844783287439E-03
               1.9146130711339131E-03
              -1.0825356423741078E-03
               6.3482803078244139E-03
              -1.5453888622102988E-03
              -1.8096159822072774E-03
              -2.2004369831433768E-02
              -2.4808118132818314E-04
               7.2465071821552485E-03
               1.5741350504216317E-03
               6.7163565070962831E-03
              -8.8931590284266543E-04
              -6.5104319535467560E-03
               5.5705844407124595E-03
              -2.3574861957207326E-04
              -1.4602379337668690E-03
               3.3278323288930449E-03
               4.4538156211116489E-03
               2.0488976620545245E-04
               7.2934246017284765E-04
               1.7106228730062818E-03
              -3.3516925671145084E-03
              -4.7935475613920201E-03
               2.5101519884008876E-03
              -7.3829731849192701E-03
              -6.4908456962918474E-03
               4.7932693857029003E-04
               4.4327465083415542E-03
               3.5250553552442264E-03
              -5.4427196894927844E-03
              -1.9807635457429872E-03
               3.6350161142031955E-03
              -3.7915808560134469E-04
              -6.4879031262987550E-03
               7.6389575639506293E-03
              -5.2449621377398297E-03
               3.9890070975618919E-03
               7.6164006572918973E-04
              -1.4314809946595485E-04
              -1.4768246789547748E-03
              -3.5823178810006099E-04
               4.5264359528475202E-04
               2.5844179253780054E-03
              -4.3385007147362358E-03
               9.1680143669822551E-04
              -9.9869347278989896E-04
               1.2604877942384862E-02
              -9.1959633557919702E-03
               4.6963406032684988E-03
              -3.6495886713258869E-03
               1.6473736041842108E-03
               2.3344157694790754E-03
              -6.3494783364855230E-03
              -8.0773147182182300E-03
              -1.2605039237971235E-02
               8.3635763150280654E-03
               9.1652202809241901E-03
               3.7693454759578182E-03
              -5.9184464131690302E-03
              -2.6116387806154981E-04
              -6.8376534268740768E-03
               1.9166585088944952E-03
               1.1633396549582922E-02
              -3.0393428881530771E-03
              -2.3222309206726672E-03
               1.1715120418457061E-02
               4.6205017888583172E-03
               8.3387071110327619E-03
               1.5990238308297268E-03
               8.2570438693418298E-03
               2.7624356599076231E-03
              -1.1928741958536748E-02
               3.6116299196823514E-04
              -8.7239487994892929E-03
               2.9535736905952422E-03
              -3.8596292003277538E-03
              -3.2362884919390419E-03
              -5.0594654112342116E-03
              -1.5352434460629826E-02
              -2.5996026279371132E-03
              -8.1757328785309266E-03
               6.7921210863876886E-03
               1.3893380604003521E-02
               7.9731985791880074E-03
               1.8775678895954148E-03
               4.7944313352676262E-03
               3.9110561732721826E-03
               3.5105062104441188E-03
              -8.6960289439406320E-03
              -3.8513900317350860E-03
               1.0353790741629249E-02
              -5.3319699490642245E-03
              -1.6005942145027752E-03
               6.3186742243479866E-04
               8.8456588084036899E-04
              -1.9849205296584290E-04
              -4.1905603613322170E-03
               2.1384381646872503E-03
              -7.2532180552755269E-03
               8.2184494168148874E-03
              -2.2767356100204528E-03
              -3.5188127010499920E-03
              -2.2266364291396721E-04
               1.4851195884373596E-03
               5.7109427757079346E-03
              -1.6253676478268623E-04
               1.4584960493258668E-03
               6.2770319046780870E-04
               5.5744322423806388E-03
              -1.2822309073407215E-02
               1.0016621799785304E-02
              -2.1327240161554779E-03
               7.0560718189599005E-03
               1.2971394412585472E-03
               5.3837208976540464E-03
              -6.2091831583975868E-03
               3.3104640675647072E-04
              -9.9421668572925639E-03
               1.7041761944905024E-03
               6.6636636201964144E-03
               2.1152313111059474E-03
               3.2381444544920574E-03
              -7.2828298475536993E-04
               1.1034851737702049E-02
              -1.1779790028812298E-02
               1.5453198810574761E-02
               1.5987171232265526E-03
              -6.0092663847260688E-03
              -5.2067233458874377E-04
               8.3236310860129031E-04
               4.7932014765027049E-03
               5.7414571126450072E-04
              -5.6922395773260880E-03
               6.6568657344041699E-03
              -8.2507274252243909E-04
              -1.1845565784567863E-02
               2.0300837794821527E-02
              -2.1181468204592338E-02
              -7.3346590622138806E-04
               3.2786377956663848E-03
               4.8668289990680662E-03
               5.1682949345681741E-03
              -1.4667261528797756E-02
               4.6896387195743466E-03
               3.4018326049484729E-03
               5.6548495553031524E-03
              -1.4016911386649693E-03
               2.4787689329745593E-03
               2.0059714823599152E-04
              -2.5206954431431631E-03
               2.4719286165675227E-03
               2.7975809053756647E-03
               1.9100446188126202E-02
              -6.7599036479264001E-04
               9.0589668016608592E-05
              -4.5117931915149073E-03
              -1.5881331713882699E-03
               2.1963550079507669E-03
               2.0863113297719445E-03
              -3.6385172248873583E-03
               2.4349118101839344E-03
               4.2052208350894507E-03
               9.8367234988791280E-04
              -3.3860229358146652E-03
              -6.7630572141551505E-03
              -1.8741896999193391E-03
               4.6316088607260163E-04
              -4.0060014622647893E-03
               8.0405072798425611E-03
              -6.4779012347818601E-03
               4.5355642074001966E-03
               1.1186978052810811E-02
              -1.4880726363942072E-04
              -9.9132187493242794E-03
              -4.4574274138358752E-03
              -2.1298834875002641E-03
               5.1809756487309873E-03
              -6.0393265300657606E-03
               3.6738856780473730E-03
              -1.4722595749476080E-03
               7.7251203477360980E-03
              -7.5672276250753588E-04
               1.3186817297712538E-03
               2.2135514573249125E-03
               5.7162696279182698E-03
               5.7566426420546345E-03
              -7.1071965919922301E-03
              -3.6477396341771089E-03
               3.2570037808463746E-03
               3.8936646169781737E-03
               2.4385793562803327E-03
              -6.8776717745294507E-05
              -2.6489492256143079E-03
              -3.2966329710037100E-03
              -3.0681146841161659E-03
              -1.1555375533976326E-02
               7.2922648008909574E-03
               2.6852815634154084E-03
               1.2480796002143765E-02
               6.8274941791728605E-03
              -1.3588686517802725E-02
         &END THERMOSTAT_ENERGY
         &RNG_INIT
Wiener process for Thermostat # 1        1 F T T   1.0180485520245248E+00        1257010015.0        1997230436.0         363102064.0         294690131.0        2794503593.0         256201657.0             12345.0             12345.0             12345.0             12345.0             12345.0             12345.0             12345.0             12345.0             12345.0             12345.0             12345.0             12345.0
Wiener process for Thermostat # 2        1 F T T   1.5748374410873103E+00        1922816015.0        2815133609.0        2839629939.0        1041159384.0        4060334736.0        4280004438.0        3692455944.0        1366884236.0        2968912127.0         335948734.0        4161675175.0         475798818.0        3692455944.0        1366884236.0        2968912127.0         335948734.0        4161675175.0         475798818.0
Wiener process for Thermostat # 3        1 F T T  -1.6929079483715095E+00        1164378330.0        2925726864.0        3139468715.0        2920433099.0        1789829872.0        1062099026.0        1015873554.0        1310354410.0        2249465273.0         994084013.0        2912484720.0        3876682925.0        1015873554.0        1310354410.0        2249465273.0         994084013.0        2912484720.0        3876682925.0
Wiener process for Thermostat # 4        1 F T T  -1.2566871918238927E+00        2657991064.0         688289210.0        1182450524.0        2846145053.0        3837965607.0        1114497400.0        2338701263.0        1119171942.0        2570676563.0         317077452.0        3194180850.0         618832124.0        2338701263.0        1119171942.0        2570676563.0         317077452.0        3194180850.0         618832124.0
Wiener process for Thermostat # 5        1 F T T  -4.1621187806079812E-01        1632780191.0        3274606110.0        3236929867.0        4241846389.0        1586362578.0        2963951258.0        1597262096.0        3906379055.0        3312112953.0        1016013135.0        4099474108.0         275305423.0        1597262096.0        3906379055.0        3312112953.0        1016013135.0        4099474108.0         275305423.0
Wiener process for Thermostat # 6        1 F T T  -1.5453161768530359E+00        3624357358.0        3280518916.0         576993532.0        3192425535.0        2290347156.0        1854928452.0          97147054.0        3131372450.0         829345164.0        3691032523.0        3006063034.0        4259826321.0          97147054.0        3131372450.0         829345164.0        3691032523.0        3006063034.0        4259826321.0
Wiener process for Thermostat # 7        1 F T T  -6.8232699031729571E-02        2105412806.0         259148141.0        1488574712.0        2173276632.0        3452333541.0        1387659776.0         796079799.0        2105258207.0         955365076.0        2923159030.0        4116632677.0        3067683584.0         796079799.0        2105258207.0         955365076.0        2923159030.0        4116632677.0        3067683584.0
Wiener process for Thermostat # 8        1 F T T   1.2450782477909283E+00        2495520650.0        1762925477.0        2706578922.0        1393683293.0        3343121003.0        1042704570.0        3281794178.0        2616230133.0        1457051261.0        2762791137.0        2480527362.0        2282316169.0        3281794178.0        2616230133.0        1457051261.0        2762791137.0        2480527362.0        2282316169.0
Wiener process for Thermostat # 9        1 F T T  -1.3201910938591214E-02        1475100847.0         150402371.0        3317291919.0        1740211426.0        2321477622.0          18990036.0        3777646647.0        1837464056.0        4204654757.0         664239048.0        4190510072.0        2959195122.0        3777646647.0        1837464056.0        4204654757.0         664239048.0        4190510072.0        2959195122.0
Wiener process for Thermostat # 10       1 F T T  -7.8690890492352150E-01        1108217871.0         312125925.0         110864082.0        3799175266.0        4286454589.0        1230982821.0        4215590817.0        3862461878.0        1087200967.0        1544910132.0         936383720.0        1611370123.0        4215590817.0        3862461878.0        1087200967.0        1544910132.0         936383720.0        1611370123.0
Wiener process for Thermostat # 11       1 F T T   5.8654081883436726E-01        1997108092.0        1026880157.0        1874738287.0        2973742586.0        3120849736.0        3880513999.0        1683636369.0         362165168.0         814316280.0         869382050.0         980203903.0        2062101717.0        1683636369.0         362165168.0         814316280.0         869382050.0         980203903.0        2062101717.0
Wiener process for Thermostat # 12       1 F T T  -3.4698139616698648E-01        4221059179.0        3289754339.0         314093244.0        2355634581.0        1941888236.0         704026792.0         272317999.0         166758548.0         310112982.0         201045826.0        1680231254.0         118290799.0         272317999.0         166758548.0         310112982.0         201045826.0        1680231254.0         118290799.0
Wiener process for Thermostat # 13       1 F T T  -1.6313087920352504E-01        2751930531.0        3758828054.0        3099461238.0        3734178929.0        1895378937.0         164653284.0        2245755202.0        1652682525.0        2865544364.0         721509566.0         209733568.0         592362218.0        2245755202.0        1652682525.0        2865544364.0         721509566.0         209733568.0         592362218.0