 # Version information for this restart file 
 # current date 2024-11-21 18:41:43.919
 # current working dir /scratch/work/courses/CHEM-GA-2671-2024fa/students/ap8064/comp-lab-class-2024/Week12-IntroAIMD/Runs/Proton
 # Program compiled at                              Sat Dec 12 18:27:15 EST 2020
 # Program compiled on                                         cs001.nyu.cluster
 # Program compiled for                                                nyu-intel
 # Source code revision number                                       git:8c64c6e
 &GLOBAL
   PRINT_LEVEL  LOW
   PROJECT_NAME proton_new_
   RUN_TYPE  MD
   WALLTIME 21600
 &END GLOBAL
 &MOTION
   &GEO_OPT
     OPTIMIZER  BFGS
     MAX_ITER  100
     MAX_DR     3.0000000000000001E-03
     &BFGS
     &END BFGS
   &END GEO_OPT
   &MD
     ENSEMBLE  NVT
     STEPS  2000
     TIMESTEP     4.9999999999999994E-01
     STEP_START_VAL  500
     TIME_START_VAL     2.4999999999999795E+02
     ECONS_START_VAL    -1.1025841879244936E+03
     TEMPERATURE     3.0000000000000000E+02
     &THERMOSTAT
       TYPE  GLE
       REGION  MASSIVE
       &GLE
         NDIM  5
         A_SCALE     1.0000000000000000E+00
         A_LIST     1.8595758612559999E+02    2.7263853498399998E-01    1.1526100454610001E+01   -3.6414578262600003E+01 \
             2.3173375816020001E+02
         A_LIST    -2.7809524712060002E-01    8.5951591808710006E-05    7.2189048017650004E-01   -1.9844539343859999E-01 \
             4.2409257583420001E-01
         A_LIST    -1.4825808131210000E+01   -7.2189048017650004E-01    1.3590902121280000E+00    5.1498896280349999E+00 \
            -9.9949268450990001E+00
         A_LIST    -1.0372189126880000E+01    1.9844539343859999E-01   -5.1498896280349999E+00    2.6661910891169999E+01 \
             1.1507715495310000E+01
         A_LIST     2.1801346360420001E+02   -4.2409257583420001E-01    9.9949268450990001E+00   -1.1507715495310000E+01 \
             3.0958394565589998E+02
         &THERMOSTAT_ENERGY
              -1.9889098264849019E-03
              -8.7123920781005237E-04
              -1.5479338552448849E-03
               1.0282039029384361E-03
              -6.8419846813581667E-03
               2.2407710657514875E-03
              -2.5156543912054218E-03
               7.1392997335890983E-04
               7.2325751656282453E-03
               1.4991650615685415E-03
               7.0010953899200777E-03
              -4.3445832586165283E-03
               1.2233946784520797E-03
               1.8338686231343373E-03
              -9.9869834509646671E-04
              -3.4897867654646443E-03
               1.3718452689090155E-03
              -2.9843103056511845E-03
               4.0092766261453725E-03
              -1.1088576227567296E-03
               4.8737898547662421E-03
               3.0919480870114863E-04
              -3.7707005362129873E-03
               1.4132844318740492E-03
              -2.6429111711124040E-04
              -3.6799354240659846E-03
              -3.1999843673916066E-03
               4.1537880803295671E-03
               2.7609129259092025E-04
               3.9534432599506916E-04
              -5.4410381898994421E-03
               4.5449012104866486E-03
               3.0732856732095331E-03
               3.6545429514397813E-05
              -2.2346830824755744E-03
               5.1077953565697807E-03
              -8.0356174789411811E-04
               6.6798671089661346E-04
               2.6259364407696605E-03
              -5.3881075754663504E-03
               2.0229191741216609E-03
              -1.4130231816724716E-03
               4.3863013227195859E-03
               2.9256101056543073E-03
              -7.5739602225189540E-03
               2.1373159838770361E-03
               2.4655794940384352E-04
               3.4668264181338324E-03
              -3.6474921087198847E-03
              -7.7397594381881476E-04
               1.9752798913163293E-03
              -1.3144597600516549E-03
              -1.5574319591961090E-03
               1.9512625783557054E-03
              -4.4337993145718898E-03
               4.5769888230561082E-03
               5.4266244934426391E-04
               2.1012870284763195E-04
               2.6912537192801881E-03
               3.5530529630475758E-03
              -1.1609402173012296E-03
               2.1126784842859995E-03
               5.8273885427623170E-03
               3.0498829762168602E-03
              -2.2799041317168225E-03
               1.3833217401319411E-03
              -2.1580928937016122E-03
               4.6929699706020579E-03
               5.1884356970399587E-03
               2.0241657476448094E-03
               9.3721043515054760E-04
              -6.8707473225827582E-03
              -1.4075808075102707E-03
               5.5010639913223624E-04
               7.5476846163674658E-04
              -6.7419469768972241E-03
               2.2175475488407054E-03
               5.0846592938674556E-03
               5.1635938272085562E-03
              -2.1980011483018066E-04
              -2.1781418970501809E-03
              -2.3530683368294301E-03
               3.1844806089608144E-03
              -2.0456648012411489E-03
               2.6899694722905981E-03
               1.8147427990435313E-03
              -5.0301825398610493E-03
               1.0762538722504040E-03
               1.9913132224822481E-03
              -4.4621760373286662E-03
               4.7232960622983653E-03
              -4.5346151904845488E-03
               4.6278057031523263E-04
              -2.3890327454568865E-03
              -6.8611614098853186E-03
               6.0552010931338596E-03
              -7.8157458262189132E-05
               3.7317999986569358E-03
               1.9286068843709456E-03
               4.9101022868365150E-03
              -7.0547746660031777E-04
              -2.5990272609037629E-03
              -4.3594303185616528E-03
              -2.8712826328300039E-03
               1.9206411574530782E-03
               3.7043854101598972E-04
              -2.0462691705318732E-03
               1.8222891386962237E-03
               4.5460172324539730E-03
              -2.6933713447675261E-03
               1.7184432513052197E-03
               1.0684189497420283E-03
               1.4059178671576725E-03
              -2.3329768016009579E-04
               4.9984016192026835E-03
               3.2323992753263420E-03
              -9.3389998451522249E-03
               2.3350900956634331E-03
              -5.9718627774575572E-03
              -1.5191890583372573E-03
              -4.3103771948383839E-03
               5.3644868285302513E-03
               4.0467951125997825E-03
               5.8103271406173395E-03
              -5.8840037538831630E-03
              -6.0028002035694460E-03
               3.0623938482297463E-04
               3.5374264049996117E-03
               1.0054761008067572E-02
               1.2363126574734026E-02
              -6.7946022530168768E-03
               6.8562521567953156E-03
               4.7835529533602180E-03
               1.8503799086268347E-03
              -1.3344227200309414E-03
              -8.6059878078436226E-05
              -4.8656771218838560E-03
               1.4233374222995879E-03
               1.1338805380827124E-03
              -6.5566500134079369E-03
               7.9315505596488974E-03
               3.7311287511748816E-03
              -1.2220933461347012E-03
               1.6747249081332028E-03
              -7.1335840018546559E-04
              -2.9263995508426927E-03
               1.8878814968316831E-03
               4.1890029086023182E-03
              -8.3986476537061920E-03
               7.6237513857923067E-03
               3.1952513535018203E-03
               6.1895511527077403E-03
              -1.1975287854070233E-03
               2.0919075598931601E-03
               9.8125577584558601E-04
              -3.7009383803204717E-03
               9.9588629389320673E-04
              -2.6454522464066043E-03
              -3.1641134968605771E-03
               4.9074038705258262E-03
              -3.4176290387070650E-03
              -7.3023790027326838E-04
               7.3515824129588944E-05
              -5.5007567087844472E-04
               6.0413967519883441E-03
               5.2300665079869517E-02
               3.8213600892813906E-03
               1.8354792840227584E-02
               3.1331276596251928E-02
               1.4833955900798156E-02
               6.4403798293908257E-02
               1.4734696701613901E-02
              -3.0386423394077860E-03
               3.5746378527989980E-02
              -4.4113678059534352E-05
               1.3715922964257186E-03
              -2.7466120267207600E-03
              -9.7220479082709603E-04
              -7.6237337137253689E-04
              -4.7671011203093703E-03
              -2.0443252073598793E-03
               5.9403244970355623E-03
              -4.7221960408335491E-04
              -5.8376777394352286E-03
               2.1529664648188532E-04
              -5.0958373354437355E-04
               3.6664567299367697E-03
              -5.0511702074290607E-03
              -2.3548574547633851E-03
              -2.3868339702833945E-03
              -9.0672576095297190E-04
               3.7748276308839980E-03
              -1.9793330717087212E-03
              -4.9559406530063519E-03
               1.5461358954506855E-03
               2.8108084533518636E-03
              -5.1811825013839789E-03
               6.7862422060072807E-04
              -2.1159818969740572E-04
               4.8546250152417241E-03
               2.2196721803627441E-03
               3.4383434160793411E-03
               3.2487252835344377E-03
               3.7343754914963964E-03
              -5.9635154289259130E-03
              -5.2163397262936827E-03
               4.4458326456294573E-03
               1.7192728100093309E-03
              -6.1964447660229141E-03
               7.5291091726567509E-03
               6.0042450209713222E-04
               1.2834215908745243E-03
               5.3745902277586750E-03
               5.8185509426836963E-03
              -7.9420947315197773E-03
               4.1811108301969008E-03
              -2.8556103957762180E-03
               6.7744297860597013E-04
              -2.1486172034971000E-03
               1.5116032105921371E-03
              -1.3799959289832527E-03
               2.6510561499654860E-04
              -5.8514014084419140E-04
               9.0840710762751385E-04
               2.8109449685167955E-04
              -9.6863835566459512E-05
               1.1794099782126693E-03
               5.1382099727504944E-04
              -1.8636182462693251E-03
              -1.7280090135179040E-03
               1.0308021675066096E-03
               5.0800934307105453E-03
               9.2469719338935472E-03
              -3.2600746274822510E-03
               2.8053176876387722E-03
               2.1557445637411608E-03
              -2.6217136756918891E-03
               1.3155988553123130E-03
               3.6967824920011477E-04
               2.6831493896050057E-04
              -3.3876927982722706E-03
               2.5149492364245668E-03
               1.4071580858026880E-03
              -1.2661996415488537E-03
              -4.3319162565108680E-03
              -2.2125628671303011E-03
              -3.3350934370761126E-05
              -3.6879347731046592E-03
              -1.3544906184819198E-03
              -4.1934947253605684E-03
              -1.4508244936577879E-03
               1.8805196095618123E-03
              -2.3511878652265313E-03
              -2.1999255711038280E-03
               3.5111390348548615E-03
              -1.3377776765480126E-03
              -1.9296638978495502E-03
              -5.6932774757540675E-04
               7.1023448002034435E-04
              -3.4731790205234431E-04
               1.3012128462703426E-03
               1.9017700499914655E-03
               3.0042641822019232E-03
              -5.2670679229560352E-04
              -3.1871550124072312E-03
              -2.2834199418872137E-03
              -2.3864637677797787E-04
               1.3835780430170356E-03
              -3.9530260747934285E-03
               6.1921607961907318E-03
              -8.5465576045112100E-03
               3.6366363785863859E-04
               3.1948178491796545E-03
              -2.1040930106650663E-04
              -2.1785003022681800E-03
              -2.4672906458459926E-03
              -4.1201136786669021E-03
               7.0794180018544459E-03
               3.8339184961561426E-04
               2.1598971630603526E-03
              -4.6613458772498543E-03
              -4.8569201894139323E-03
               9.7254755030617285E-04
              -1.2588247470147775E-03
               3.1028262550053388E-03
               1.9429142854289181E-03
               1.8213852771311108E-03
              -4.2316341236860507E-03
              -2.2553923080317452E-03
               1.9144700147066813E-03
              -2.8316353749831451E-03
               1.0216487738260844E-03
               4.3775920196450994E-03
               7.4298947213407706E-04
              -6.8512700192105143E-04
               9.7635537978148484E-03
              -7.7747648842858615E-03
               3.5520659969171696E-03
              -8.9648401409823811E-04
              -3.1445046856189772E-03
               3.2933232042693422E-04
              -1.5630971771697186E-04
               2.6673112108904105E-03
               1.4702544164616439E-03
              -1.7736148020303343E-03
              -5.4079687888522140E-04
              -2.5196724302514301E-03
               1.1305714828526519E-03
              -1.2223519476115454E-03
              -2.2127371308792716E-04
              -8.2278298784247761E-04
              -2.6003576354101999E-03
               2.9832807019489265E-03
               1.9574602410385674E-03
              -2.3637430272574434E-04
              -4.7827867342399019E-04
              -2.4703000687294691E-03
               6.0795329713661788E-03
              -2.7858550488695354E-03
              -3.3734246851028593E-04
               8.3078041288921862E-04
               1.3504579663845349E-03
               1.3326531394410410E-03
              -3.0826634372919659E-03
               2.7660882701080374E-03
               1.0866802574834781E-03
               8.2982856579174907E-04
               9.9139746502802410E-04
               3.0786941547972398E-04
              -1.8443588696192589E-03
              -1.2864049476151019E-03
              -9.5132323954799940E-04
               2.1417835976730859E-03
               5.0163830036493075E-03
              -3.0092626163611626E-03
               1.8649303170080347E-03
               3.0639323157233282E-03
               4.4554835199214261E-04
               5.2467059696239618E-03
               5.0268892747346011E-03
              -3.3351649196975198E-03
               2.1117566847374601E-03
               1.2836041920470413E-03
               2.3131078793285340E-03
               1.0844006217864746E-03
               2.2874014380069971E-03
               1.1360123044973096E-03
              -1.4396869899350948E-03
               3.4779298514090611E-03
              -3.9591905709610055E-03
               2.3299889617228488E-03
               1.6744264321158200E-03
              -2.1976628533642724E-03
               4.7809994805767548E-03
              -3.5532294587515482E-03
               2.5562080277251303E-03
              -1.5350976448307049E-03
               4.9063088314447731E-03
              -2.1342399901256555E-03
              -5.6771731260941418E-03
               4.8984539466707961E-03
              -3.5629836256380245E-03
               6.6668328673449686E-03
              -6.0094718599592103E-04
              -1.9106681692078275E-04
               4.6827701884777665E-03
               4.4883519830854557E-03
               3.8861902858991072E-03
              -7.7416953482086657E-03
              -1.7799609102729867E-03
              -2.1565869430546082E-03
              -4.8295284726935237E-05
               2.3377828059661624E-03
              -2.1511811273145810E-03
              -6.6951650686228803E-04
               1.2141343251184395E-03
              -3.5428925756252781E-03
              -4.6500646502403518E-03
               5.8425739571149666E-05
               3.5706046820744033E-03
               4.3253183187138998E-03
               1.4131723920895517E-03
              -6.9815005286422236E-04
              -1.0917766661432593E-03
              -4.7136818636785861E-03
              -1.1059629859305048E-03
               8.2185744099110575E-03
               7.4573903109800583E-04
               5.7129897529767928E-03
              -1.3190416313964594E-03
              -1.6092623273830950E-03
               3.1451294837146039E-03
              -6.6306211415822049E-05
              -4.9709391494113962E-03
               3.7156338374714229E-04
               4.0493767319700344E-03
               3.5081967375184971E-03
               1.0443694141896824E-03
               5.5519848937359635E-04
              -3.8443494708981524E-03
              -2.0804893950446676E-03
               2.1356048036576687E-04
               4.5417629264829723E-03
               3.0895968250487732E-03
              -3.9941556135699788E-03
               3.3774479343185110E-03
              -1.5553812191246720E-04
              -5.6901650520784540E-03
              -1.7301403454008824E-03
              -1.3890663419482264E-04
               7.0318319242253301E-04
              -2.3243017225930028E-03
               2.5237263087091685E-03
              -5.6240422689544760E-03
              -2.9300899480137754E-04
               2.1190333835606344E-03
              -5.7720952511661795E-03
              -2.0596867521165641E-03
              -3.0569785226460889E-03
               7.9338639339994260E-04
               5.8623320760551566E-03
              -4.9022663573703058E-03
              -7.7998232871796802E-04
               1.6270328521776054E-03
               1.6544983284021431E-03
               1.0553596110449166E-04
               3.6428414336307424E-03
              -4.9565077674470831E-03
               1.1858007071033575E-03
               7.8224806052076754E-03
              -1.8778892503454865E-03
              -3.3472691871435705E-03
              -9.0470536110043894E-04
              -2.3621133271168075E-03
               2.0995909913607246E-03
               3.5015227019824526E-03
               2.4980472374094576E-04
              -9.9449154546897502E-04
              -7.0075634587878576E-04
              -2.0065950703053044E-04
               4.7051531932652026E-03
              -1.7571022669623474E-03
              -2.5117829582906852E-03
               1.9539806405769497E-03
               8.6474832039580638E-04
               7.1723487252607398E-03
               4.1769716853336334E-03
              -2.9182417925783803E-03
              -2.1779147235199852E-03
              -4.0307500286208679E-04
              -8.6816597818902008E-04
              -6.9702946919509515E-03
               4.6153092219380397E-03
               2.4025638025263979E-04
              -1.6955093967167992E-03
              -2.5896209101911633E-03
               4.2766814409756556E-05
              -1.1321674564504758E-03
              -5.8603936863638488E-04
               4.7682506379830292E-03
              -3.4793639922013589E-03
               2.1995792610638850E-03
              -2.1367742676360883E-03
              -1.7479387188391740E-04
               2.7586417183409462E-03
               3.8927388269436990E-03
               6.1760150319372915E-04
              -3.6941222124318757E-03
              -4.5298805592337615E-04
               2.6805299405305546E-03
              -3.3410891427467482E-03
               7.4253925976530666E-04
               3.3439828972892287E-03
               1.0816384241099742E-04
              -1.8926491609839659E-03
               4.7212371575459247E-03
              -1.5437466699864434E-03
               4.8675408879874727E-04
              -6.4231823430747573E-03
               3.3347339080376120E-03
              -9.2560217155081650E-04
               1.4918542619449607E-03
               2.4482519062357976E-03
               1.6659014428248619E-03
               1.5890050478257981E-03
               2.1793502239466087E-03
              -3.2247700734104792E-03
              -5.8449728711656886E-03
               6.1685119985578950E-03
               9.8357459058277938E-04
               2.3411039188040357E-03
               8.6696707102476133E-04
              -1.9775107408559912E-03
              -2.9044635805968873E-03
               1.5405163756326223E-03
              -7.0401768794119707E-03
               6.7389733514298181E-03
               6.0928022500923891E-03
               5.6032135888830562E-03
               3.0148824633296958E-03
              -1.6919432137309331E-03
              -6.9870077111034107E-04
              -8.6007538280805599E-03
               6.5824118106744250E-03
              -3.1945011804050791E-03
              -4.0362599059177466E-03
              -3.9632089029414914E-04
              -1.4544679017648512E-03
               6.5084908744806203E-04
               1.4106420155084410E-03
               1.7758037857842780E-03
              -9.8313063153404666E-04
              -1.3812904478671174E-03
              -6.9326094658314899E-03
               4.0689669133524477E-03
               1.2798771931652581E-03
              -3.3870479855556510E-04
               2.7225237077182001E-03
               4.5618661689370435E-03
              -4.2057623807755075E-03
              -8.3520936869832182E-04
               2.2200458561711427E-05
               3.2057160415862153E-03
              -2.4460228842915037E-03
              -3.5504110429153040E-03
               2.6238016049211009E-03
               2.5401356915832106E-03
              -1.2165218960276808E-03
               6.5253080959892856E-03
               7.3497956615328859E-03
              -1.0298168071951929E-03
              -3.5686991040621333E-03
               1.8013605579953618E-03
              -5.3836901260440155E-03
               2.3619851543082338E-03
              -6.9272340604171318E-04
              -1.0561113169426648E-03
               2.8787454414462961E-04
               2.9472945416208320E-03
               8.7662406654805602E-04
               6.9028463755973829E-04
              -2.5852516102463840E-04
              -4.9180531087027598E-03
               3.4672359964594391E-04
               3.3774876629884183E-03
              -1.6898081844035407E-03
               1.2492704527224121E-03
              -1.1552778979600394E-03
               1.7157980525980552E-03
               1.2589297181604549E-03
              -3.4132748852631675E-03
              -2.7082515267336897E-03
              -5.3687848825978069E-05
              -1.3809214302907264E-04
              -1.2216453403624771E-03
              -8.8121340364877166E-03
               6.2493755445398489E-04
               4.8250234212349500E-04
               8.2743566379869533E-03
               1.1537718742200042E-03
               4.7894765329552693E-03
               2.7816168723201759E-03
               2.4265617751196141E-03
               9.1516776537011000E-04
              -7.3633349339214001E-04
               5.1098461820663068E-03
              -6.0679049130727952E-03
              -7.9072342271923756E-04
               6.3646111972615943E-03
              -4.0140249429069423E-03
               2.2680956041430771E-03
              -4.4342488523127013E-03
              -4.6870595602369336E-03
              -2.5945670052118586E-03
               1.8915911007195119E-03
              -2.7516913892464763E-03
               1.8351343131453683E-03
               1.1773629226290987E-02
              -3.8542787810841952E-03
         &END THERMOSTAT_ENERGY
         &RNG_INIT
Wiener process for Thermostat # 1        1 F T T  -1.5505429657892764E+00         661802595.0        2026459976.0        3136775027.0        3268219721.0        1056216878.0        3744216088.0             12345.0             12345.0             12345.0             12345.0             12345.0             12345.0             12345.0             12345.0             12345.0             12345.0             12345.0             12345.0
Wiener process for Thermostat # 2        1 F T T   1.5766939834860993E-01        2521559082.0        1979391111.0        3972826820.0        2839528192.0        3960449033.0        3051881342.0        3692455944.0        1366884236.0        2968912127.0         335948734.0        4161675175.0         475798818.0        3692455944.0        1366884236.0        2968912127.0         335948734.0        4161675175.0         475798818.0
Wiener process for Thermostat # 3        1 F T T  -1.6802103653762466E+00        2464096834.0        3454226368.0         668358963.0        3607867155.0        2139338144.0        1695442074.0        1015873554.0        1310354410.0        2249465273.0         994084013.0        2912484720.0        3876682925.0        1015873554.0        1310354410.0        2249465273.0         994084013.0        2912484720.0        3876682925.0
Wiener process for Thermostat # 4        1 F T T  -9.2120442907176847E-01        3007810664.0         626544053.0           5688727.0        2019501767.0        4050809287.0        2188826537.0        2338701263.0        1119171942.0        2570676563.0         317077452.0        3194180850.0         618832124.0        2338701263.0        1119171942.0        2570676563.0         317077452.0        3194180850.0         618832124.0
Wiener process for Thermostat # 5        1 F T T   1.9586792436148486E+00        3119398129.0        2238966874.0        1731687009.0        1729823850.0        3912388439.0         182524877.0        1597262096.0        3906379055.0        3312112953.0        1016013135.0        4099474108.0         275305423.0        1597262096.0        3906379055.0        3312112953.0        1016013135.0        4099474108.0         275305423.0
Wiener process for Thermostat # 6        1 F T T  -2.2012851380256623E-01         527820745.0        2447393615.0         338698828.0         653439858.0         976211817.0        3944196308.0          97147054.0        3131372450.0         829345164.0        3691032523.0        3006063034.0        4259826321.0          97147054.0        3131372450.0         829345164.0        3691032523.0        3006063034.0        4259826321.0
Wiener process for Thermostat # 7        1 F T T  -1.2191095662093037E-02         167278661.0        2992638024.0        1197931920.0         124710794.0         889033703.0        2194094787.0         796079799.0        2105258207.0         955365076.0        2923159030.0        4116632677.0        3067683584.0         796079799.0        2105258207.0         955365076.0        2923159030.0        4116632677.0        3067683584.0
Wiener process for Thermostat # 8        1 F T T  -2.6373530393371375E-01        2923147749.0        3809475671.0         892364519.0        3114385888.0        3523415917.0        3402922821.0        3281794178.0        2616230133.0        1457051261.0        2762791137.0        2480527362.0        2282316169.0        3281794178.0        2616230133.0        1457051261.0        2762791137.0        2480527362.0        2282316169.0
Wiener process for Thermostat # 9        1 F T T  -1.2388913960989989E+00         276694386.0        3384434371.0        2194062143.0        3864498526.0        2498625561.0        4174179731.0        3777646647.0        1837464056.0        4204654757.0         664239048.0        4190510072.0        2959195122.0        3777646647.0        1837464056.0        4204654757.0         664239048.0        4190510072.0        2959195122.0
Wiener process for Thermostat # 10       1 F T T  -6.9271884074884071E-01         298842605.0        4183294382.0        3769908432.0        1623977651.0        3452521187.0         349927101.0        4215590817.0        3862461878.0        1087200967.0        1544910132.0         936383720.0        1611370123.0        4215590817.0        3862461878.0        1087200967.0        1544910132.0         936383720.0        1611370123.0
Wiener process for Thermostat # 11       1 F T T  -3.9199517781213300E-01        1183014876.0        2469777470.0        2706060047.0        1374668043.0         490283634.0         131761905.0        1683636369.0         362165168.0         814316280.0         869382050.0         980203903.0        2062101717.0        1683636369.0         362165168.0         814316280.0         869382050.0         980203903.0        2062101717.0
Wiener process for Thermostat # 12       1 F T T   1.2248374085476998E+00         744312290.0        1838623065.0        1895433531.0        2930723882.0        3034111406.0        1223209339.0         272317999.0         166758548.0         310112982.0         201045826.0        1680231254.0         118290799.0         272317999.0         166758548.0         310112982.0         201045826.0        1680231254.0         118290799.0
Wiener process for Thermostat # 13       1 F T T   1.6053528300026945E-02         341235087.0         365462780.0         607175623.0        3292057964.0        1611524565.0         256574977.0        2245755202.0        1652682525.0        2865544364.0         721509566.0         209733568.0         592362218.0        2245755202.0        1652682525.0        2865544364.0         721509566.0         209733568.0         592362218.0