 # Version information for this restart file 
 # current date 2024-11-21 20:35:24.716
 # current working dir /scratch/work/courses/CHEM-GA-2671-2024fa/students/ap8064/comp-lab-class-2024/Week12-IntroAIMD/Runs/Proton
 # Program compiled at                              Sat Dec 12 18:27:15 EST 2020
 # Program compiled on                                         cs001.nyu.cluster
 # Program compiled for                                                nyu-intel
 # Source code revision number                                       git:8c64c6e
 &GLOBAL
   PRINT_LEVEL  LOW
   PROJECT_NAME proton_new_
   RUN_TYPE  MD
   WALLTIME 21600
 &END GLOBAL
 &MOTION
   &GEO_OPT
     OPTIMIZER  BFGS
     MAX_ITER  100
     MAX_DR     3.0000000000000001E-03
     &BFGS
     &END BFGS
   &END GEO_OPT
   &MD
     ENSEMBLE  NVT
     STEPS  2000
     TIMESTEP     4.9999999999999994E-01
     STEP_START_VAL  1497
     TIME_START_VAL     7.4850000000000750E+02
     ECONS_START_VAL    -1.1025841879244936E+03
     TEMPERATURE     3.0000000000000000E+02
     &THERMOSTAT
       TYPE  GLE
       REGION  MASSIVE
       &GLE
         NDIM  5
         A_SCALE     1.0000000000000000E+00
         A_LIST     1.8595758612559999E+02    2.7263853498399998E-01    1.1526100454610001E+01   -3.6414578262600003E+01 \
             2.3173375816020001E+02
         A_LIST    -2.7809524712060002E-01    8.5951591808710006E-05    7.2189048017650004E-01   -1.9844539343859999E-01 \
             4.2409257583420001E-01
         A_LIST    -1.4825808131210000E+01   -7.2189048017650004E-01    1.3590902121280000E+00    5.1498896280349999E+00 \
            -9.9949268450990001E+00
         A_LIST    -1.0372189126880000E+01    1.9844539343859999E-01   -5.1498896280349999E+00    2.6661910891169999E+01 \
             1.1507715495310000E+01
         A_LIST     2.1801346360420001E+02   -4.2409257583420001E-01    9.9949268450990001E+00   -1.1507715495310000E+01 \
             3.0958394565589998E+02
         &THERMOSTAT_ENERGY
               1.7277482589995001E-03
              -6.1207161903070392E-04
              -2.6779402504502406E-03
               5.8678353469594925E-03
              -1.3799408745296659E-02
              -6.3258444287761376E-05
              -4.9037034743846823E-03
               6.0374668917125692E-03
               8.8644479321548224E-04
               3.6632704584706310E-03
               8.9392197998467548E-03
              -6.4914277592428493E-03
               8.8364604827352372E-04
              -3.9199788678164855E-03
               3.1880691945826382E-03
              -8.7028859030553879E-03
               3.2384790981939467E-03
              -1.7335081089862650E-03
              -2.8995941193295352E-04
              -7.8438623176480112E-04
               4.9817088547189159E-03
               3.8211712537120799E-03
              -8.1574460579264957E-03
              -3.2201442243668370E-03
              -2.0090610340170942E-03
              -1.2350649079782878E-02
              -1.6264654813299847E-03
               1.0544262853305227E-03
               2.1641092757888579E-03
               2.3778092089224256E-03
              -7.3640599180519063E-03
              -1.7886080256057214E-03
               7.3697046299436506E-03
               5.1907042409010812E-03
              -1.3950850536670797E-02
               1.4334152379782384E-02
              -2.5572393376367556E-03
              -1.6822394542018060E-03
               2.4840857019997470E-03
              -1.7804908257824275E-03
               8.0000710100938612E-04
              -5.5001340890350929E-03
               9.1892745810496154E-03
               8.9682046554871182E-03
              -4.0139752493597832E-03
               5.9775145739918364E-03
               1.6170975100566504E-02
              -8.9386537695336239E-04
              -2.9654935352513394E-03
              -1.1541754373944852E-04
               7.4657643495292761E-04
              -2.5333282531266343E-03
              -1.5294374384600901E-03
               8.9464398445800565E-04
              -5.1415873090268098E-03
               2.9927746892410788E-03
              -7.9219799409381607E-04
               4.7307479432546311E-03
               6.5752109984225024E-03
              -2.2646572507698205E-03
              -9.4557596719842731E-03
              -7.1136162811769226E-03
               1.8725078964051754E-02
               6.5726987367609863E-04
               8.8479880000247150E-04
               5.9886189957874519E-03
              -1.0855697670348380E-02
               1.4126170542188066E-02
               1.3659774310787656E-02
              -2.9152444096731487E-03
              -4.1362236787831335E-03
              -1.1575390678823908E-02
               1.0299742851027900E-03
              -1.2160558844704328E-03
               7.1419517178309463E-04
              -7.7931556208336375E-03
               4.2552102307230064E-03
               1.0510089241503715E-02
               1.9590753392556169E-03
              -7.5980558442909673E-03
               3.3958800502254033E-03
              -4.1720719385239819E-03
               4.2382577211053226E-04
               5.4447110238825167E-04
               3.4437694643931868E-03
               5.7618403445542313E-03
              -2.7893036747167533E-03
               1.0203483128019227E-03
               7.1834100047214007E-04
              -5.6636514873735439E-03
               3.5927051337980354E-03
              -3.8388533992985982E-03
              -1.0231889897920473E-03
              -3.2655835885198685E-03
              -1.6015978492826956E-02
               1.0014319649552059E-02
               4.8854031752646873E-03
               1.9968372482591997E-03
               2.2336066024174895E-03
               7.5558915787865711E-03
              -7.3258338076423240E-03
              -2.6612813252906552E-03
               6.2769681482368993E-04
              -4.5172139515795139E-03
              -6.5397910742449709E-03
               1.0188295538575951E-02
              -2.7508963855100267E-03
               9.6340395001502514E-04
               3.7479973206069233E-03
              -3.9113599659057344E-03
               6.7964973128478289E-04
              -1.0142254614636875E-03
               2.6697391919693336E-03
               3.5968342050503171E-03
               7.0547750461368401E-03
               1.3591598831441676E-03
              -8.7820556643742453E-03
               7.0973519753965572E-04
               1.0504210422727421E-03
              -2.0967749752041423E-03
               2.0625889387934472E-03
               4.8806895198439827E-03
              -5.2818928426367042E-04
              -1.0753188595927902E-03
              -6.2564038504854119E-03
              -7.5133044855768818E-03
               6.6719260404136591E-04
               4.1993010614865363E-03
               1.1620607145524396E-02
               5.6715117614085367E-03
              -1.1342333272554989E-02
               1.0243159731986770E-02
               1.8455209464456077E-03
               3.9770248441055843E-04
               5.0528958072850114E-03
               7.3187128888086708E-04
              -4.4990938031841815E-03
              -4.9916452763332257E-03
               2.7749256622114356E-03
              -5.0324351970174666E-03
               7.0413183334065172E-03
               1.6104329197741268E-03
               1.1554987775103189E-02
              -4.4466413683238414E-03
               4.5557974696822136E-03
              -5.2071284779298954E-03
               2.8119375393943370E-03
              -4.5274466662996151E-04
              -1.3105383054202916E-02
               1.4117389106967406E-02
              -1.2331508034898634E-02
               1.2986063324505318E-02
               4.9482194446422087E-03
               4.6689804556662162E-03
               8.5339028729280574E-03
              -7.9685268857089065E-05
               2.6249539628071207E-03
              -2.7237035338326453E-03
              -3.3779475656681916E-03
               2.9769876384238246E-03
               2.6489016428674333E-03
              -2.7764023122571527E-03
               3.4150531645808918E-03
               5.2468062846664255E-03
               9.2106509593113291E-03
               6.3009375107876742E-02
              -2.8046652850922116E-03
               1.2275023596829443E-02
               3.2518826578984979E-02
               1.7426327565892217E-02
               6.6935062718021243E-02
               1.4646074229839818E-02
              -1.5331446311692858E-03
               3.5555011359166618E-02
              -2.2515935917450961E-03
               2.8375922607438743E-03
               5.6597198776266731E-04
               1.4290748905484200E-03
              -1.4877404748877882E-02
               1.8480940061499803E-03
              -1.0690346744412035E-02
               6.0647521214982313E-03
               5.9098709062579604E-03
              -6.5814564779140021E-03
              -1.4718957516194776E-04
              -1.2688385884339895E-03
               1.1736612642317281E-02
               3.2476053065184393E-03
              -1.0172504934831041E-02
              -3.2519855360268932E-03
              -8.2196681515951282E-03
               1.5947727006226205E-02
               6.7017440178410766E-03
              -5.3074927981051701E-03
               3.8112930132944891E-03
               9.8249874101599896E-03
              -7.3149803821319619E-03
               2.4046315247464090E-03
              -3.4172589276094479E-03
              -7.5539600959481723E-03
               3.6992571541449321E-03
               1.5479913777971010E-03
               4.2894785505945545E-03
               4.6039213515960079E-03
              -1.3431872484305052E-02
              -2.7450721476055015E-03
               7.6889988874242685E-03
               3.8065479750653214E-03
               5.8162513578180290E-04
               7.3880647871208435E-04
               1.1310175481686897E-03
               1.0975028245575641E-03
               1.5600186132495866E-03
               4.3886630624057612E-03
              -6.8567952280769806E-03
               7.4308644669165000E-03
              -1.1892407611088160E-02
               5.8826996293025709E-03
               1.8615355289146695E-03
               1.3103468892143827E-03
               1.1690066451412141E-03
              -4.6212332958205336E-03
              -8.9927954187307563E-03
              -1.2134393477367994E-03
               1.3016730524931398E-02
              -1.6428634924793473E-03
               4.1015862829706003E-04
               5.3228820646461636E-03
              -1.4336354128990690E-03
              -2.2264128408593349E-03
              -7.5341178652888721E-04
               8.7519271698289196E-03
               7.2417653052312438E-03
              -3.6952668328579289E-03
              -2.2077642902152664E-03
              -7.0431059907048168E-03
               1.5067580265682300E-03
              -3.4225854489614536E-04
              -2.2493328091510289E-03
              -8.6513675764582181E-04
               5.4368683799336896E-03
               9.0736348842609827E-03
               2.0165820649612905E-03
               5.9797096137688454E-04
              -2.1947363392217935E-03
               1.0387233798768403E-04
               1.3992409631121095E-03
              -1.2265770317073212E-03
              -5.2550217713605808E-03
              -3.7727584122003817E-03
               7.3562507479895123E-03
              -3.6792709261439932E-03
              -5.3480898237147773E-03
              -1.2915470721058094E-02
               7.8495360407479595E-03
              -2.1366573036658613E-03
              -4.3634482537419960E-03
               1.7953494803641403E-03
              -4.1069811808945467E-03
               4.6727370552842422E-03
               6.3652530756004144E-03
               4.8794233886560951E-03
               1.4239805877014677E-02
              -4.9641517470114943E-03
              -5.7186320972241215E-03
               8.7760153802527840E-04
               5.6639589116991304E-03
               5.3686144175988859E-03
              -4.1780010194121722E-03
               1.2089618119113752E-02
              -1.4255711975415518E-02
              -5.6682121785102462E-03
               1.2116544567315439E-02
               6.9451932361426849E-03
               1.3745160747257350E-03
               1.6953724149001337E-03
              -1.1206183937024371E-02
               4.1620781054259297E-03
               6.6899525660815383E-03
              -5.1182471802284678E-03
               5.1776779101171616E-03
              -6.2238455663725604E-03
               7.4047406338117209E-03
              -7.4042700223268332E-03
               4.7453719419782011E-03
               6.6212621096293882E-03
              -5.9808807621305410E-03
              -1.4111224293379603E-03
              -1.8142446364705900E-02
              -9.8694746566231660E-04
               1.4963129520593943E-02
               1.3978960191861642E-03
              -4.3343449182680332E-03
              -5.4543312839204000E-03
               4.9532362148621955E-03
               1.4255669992132980E-02
              -1.2156797408728891E-02
               1.3047834580912999E-02
               9.3535206245291009E-03
              -1.4858087202847540E-02
              -7.0063277559950798E-04
              -4.9029731717666345E-03
               3.0939095416646031E-03
               5.6467462642451850E-03
              -2.7004983735297058E-03
              -8.1558941813816392E-03
              -6.0873475468738148E-04
              -2.8828452290500981E-03
               7.3411976676181837E-03
               3.1000598116901232E-03
              -2.6631712560081220E-03
              -2.7185237812816852E-03
               5.6491379368949005E-03
              -4.4128736887632195E-03
               1.0881390070093190E-03
              -2.5977765511263256E-03
              -6.0779563084966725E-03
               3.0870874586327638E-03
              -1.1373661235416251E-02
              -7.4574234794841255E-03
              -1.8539327100173348E-03
               3.4151962706048472E-03
               4.8197222799544999E-03
               2.6299966160308790E-03
              -3.6945951287148484E-03
               6.0996836008701382E-04
               8.4004083533063788E-03
               3.5297852093275012E-03
              -3.5425306753748328E-03
               2.8078622852592125E-03
              -9.1915796836513682E-03
               4.3912956099598612E-03
               2.2432728480818874E-03
               1.5626966139930185E-03
              -2.3832126358080871E-05
               1.4914391898503858E-03
               4.7253166260511634E-03
               2.7435006066969772E-03
               4.7583236885217674E-03
               1.0597019155007042E-03
              -1.4584151625000973E-02
              -3.2474888981372403E-04
               2.4424501303278844E-03
               6.7691737605829472E-03
               2.9523764591155504E-04
               7.0316904512343625E-03
               2.8034642537263822E-03
              -9.7574907049704142E-03
               1.3083373385613984E-02
              -2.6521885575746724E-03
              -8.6496052079686331E-03
               1.3913419057885949E-03
              -1.2464277891593933E-02
               1.4807782290989697E-03
              -7.9857993318362261E-04
              -2.1348045871646664E-03
               8.0559265918510965E-04
              -6.6610628377585033E-04
              -4.6527818353614596E-03
              -6.5924291487218321E-03
               1.1140304915233422E-03
              -1.1390871239301741E-03
               8.3536949631376131E-03
              -4.6103815581953322E-03
              -1.6114818607220253E-02
               3.9989304501960501E-03
               9.7273159749750419E-03
               6.5287918718917905E-03
              -1.2829672756165122E-02
              -5.1439939629832673E-03
              -4.8466116105103010E-03
               5.5187528499183137E-03
              -2.4328514652380332E-03
              -2.5711499404205093E-03
              -1.1871124528741496E-03
              -2.6826417114060710E-04
              -7.7354020972385130E-03
              -6.8476846568195126E-03
               5.8337111256477302E-03
               1.8448908478374119E-03
              -2.0254400707823295E-03
               6.4780773782773153E-03
              -1.7186449723865320E-03
              -2.5329157783018450E-03
              -2.1417188922639187E-02
              -1.4751990113154303E-03
               6.3474651647868353E-03
               1.7280112964448799E-03
               7.3717995597716995E-03
              -8.6280208633874667E-04
              -7.7339536302597940E-03
               5.2347970743772147E-03
              -1.9186070224035318E-04
              -1.7808950668961202E-03
               3.4215701263027353E-03
               4.0911945818090951E-03
               3.3084613042300175E-04
               1.1133932827848490E-03
               1.0446468641353555E-03
              -4.1855499927088303E-03
              -2.8070007593744319E-03
               2.8076083289964504E-03
              -7.1614164158465242E-03
              -9.1519354683107269E-03
               6.2557717449944548E-04
               4.4619476373936864E-03
               4.2958698189605347E-03
              -5.6300838558076671E-03
              -2.4295199317387580E-03
               3.3914306729140699E-03
              -5.1317537212904767E-04
              -6.1159276192060798E-03
               7.6254827427578616E-03
              -5.3414874063850322E-03
               4.1132582350722020E-03
               9.9925142058426234E-04
              -7.0213604338193228E-04
              -1.5809455631777304E-03
              -5.8460524388236480E-04
               3.7514051509561069E-04
               2.8603044181684622E-03
              -4.1909061639000284E-03
               1.2113935307344610E-03
              -3.5193900428289620E-04
               1.3059691418111963E-02
              -8.9691043285571505E-03
               5.1577869484038400E-03
              -3.5339312984984119E-03
               1.2673180839326659E-03
               3.7318194085165799E-03
              -6.0449034435107064E-03
              -8.2907383095581783E-03
              -1.2402111674179348E-02
               8.6204501375357050E-03
               9.2514122680131608E-03
               3.7363527693552319E-03
              -6.6341504470082292E-03
              -6.7311363930807092E-04
              -6.8380767725617769E-03
               9.2776184874702409E-04
               1.0692825764074739E-02
              -2.7034056873249958E-03
              -2.2018520934106198E-03
               1.2097338177827131E-02
               4.9579684440771129E-03
               8.4126929530369526E-03
               9.5028073800273809E-04
               8.3432185856891078E-03
               2.9338317549642287E-03
              -1.1405918156734376E-02
               1.4057249556999243E-05
              -8.1237396265607265E-03
               3.0714691891048341E-03
              -3.8604269278291513E-03
              -3.3493719201763495E-03
              -4.9923847753720642E-03
              -1.4540891237101628E-02
              -3.9599195334363499E-03
              -8.5860440909528157E-03
               7.0222828074651984E-03
               1.3784882197891596E-02
               8.3019683940658354E-03
               1.9393485030680148E-03
               4.6895214315652509E-03
               4.1500793253038118E-03
               3.1269574177890187E-03
              -8.6351011354505961E-03
              -3.8771959668036883E-03
               1.0681884656642228E-02
              -5.2609665121475810E-03
              -2.9486625133877268E-03
               6.1643578312849730E-04
               1.0291238725441629E-03
              -3.0480751208667101E-04
              -4.0983990152956128E-03
               2.1778562642284826E-03
              -7.6197717625674320E-03
               6.8949515071763468E-03
              -3.2027880822369775E-03
              -3.6235543947947769E-03
              -1.6162200893588615E-05
               1.4786482626772703E-03
               6.1071953008154231E-03
              -1.3665182909280993E-04
               1.2401904350441055E-03
               1.2025683631387309E-03
               4.8201690053256419E-03
              -1.2978596143439087E-02
               1.0068497863274038E-02
              -1.8585219153952693E-03
               7.0471892848394590E-03
               6.7358090475163441E-04
               5.3679856778603985E-03
              -6.1560372406575716E-03
               6.6982024236148462E-04
              -1.0256324501864707E-02
               1.4418239648464144E-03
               6.7690445611795057E-03
               2.8714572450465048E-03
               3.2548881726734992E-03
              -1.0328069129265593E-03
               1.1305101757178278E-02
              -1.1942981242232030E-02
               1.5254761137394761E-02
               5.0943906497877300E-04
              -5.7012998972336007E-03
              -4.9427265483328485E-04
               8.7990905109078797E-04
               4.8987559303232189E-03
              -1.3766946501283660E-04
              -5.3626997979803730E-03
               6.8228870171409810E-03
              -7.1350223561406252E-04
              -1.1816763125667734E-02
               2.0427591305729062E-02
              -2.1268379753974814E-02
              -8.3426016633869507E-04
               3.1877358777734699E-03
               4.9078363048462095E-03
               4.4912332098129464E-03
              -1.4864458033296996E-02
               4.8015970414381770E-03
               2.9484529028153891E-03
               4.7814165906085934E-03
              -1.1688825609570733E-03
               2.4099215013941235E-03
              -6.3328225996279824E-04
              -2.4680513873188551E-03
               2.4351524425674140E-03
               2.6951543176675194E-03
               1.9231723925953247E-02
              -5.2630629222885509E-04
               8.0256626004040203E-05
              -4.1888662015170768E-03
              -9.0058386093793698E-04
               2.0488004148299667E-03
               2.3723373795491989E-03
              -4.0313260868835620E-03
               2.9538048445425791E-03
               3.7731506876313827E-03
               5.6230003655663376E-04
              -2.3421261968094649E-03
              -6.9312667236786354E-03
              -1.7259443939314765E-03
               4.5482427649900267E-04
              -4.0581840062618576E-03
               8.3273046203063660E-03
              -6.0649245010219567E-03
               4.5538916045878269E-03
               1.1580662330584801E-02
               5.5791072887577333E-04
              -1.0130647948484912E-02
              -4.4682537755164819E-03
              -1.8105072823448680E-03
               5.0397182161411201E-03
              -6.2578386677171784E-03
               3.7528867702604093E-03
              -1.3800118206146019E-03
               7.6740856582848127E-03
              -7.0398005265051014E-04
               1.6430686561522540E-03
               2.3848808872032790E-03
               5.9003448843641454E-03
               5.7259097849472603E-03
              -7.0948003788106201E-03
              -3.8589149166219213E-03
               4.9485856266039460E-03
               4.2725136782604993E-03
               2.4395011694591955E-03
               5.4235866572197315E-04
              -2.6182920247491835E-03
              -3.2419286898585820E-03
              -3.4317061434148044E-03
              -1.1472906345911037E-02
               7.1642177716161343E-03
               2.5413789616558938E-03
               1.2473768068451406E-02
               6.7483989593161266E-03
              -1.3237465084332451E-02
         &END THERMOSTAT_ENERGY
         &RNG_INIT
Wiener process for Thermostat # 1        1 F T T   6.8315707908843559E-01         145707463.0        2765587328.0        1312984679.0        1534005471.0        3202279908.0        3330678242.0             12345.0             12345.0             12345.0             12345.0             12345.0             12345.0             12345.0             12345.0             12345.0             12345.0             12345.0             12345.0
Wiener process for Thermostat # 2        1 F T T   1.8845395802338655E-01         908307879.0        2326763054.0        3258923806.0        2010416249.0        3452408146.0        3422291596.0        3692455944.0        1366884236.0        2968912127.0         335948734.0        4161675175.0         475798818.0        3692455944.0        1366884236.0        2968912127.0         335948734.0        4161675175.0         475798818.0
Wiener process for Thermostat # 3        1 F T T  -3.9376308345888111E-01        3422169148.0         716343986.0        3371048731.0        1799005858.0        3430499259.0          99948494.0        1015873554.0        1310354410.0        2249465273.0         994084013.0        2912484720.0        3876682925.0        1015873554.0        1310354410.0        2249465273.0         994084013.0        2912484720.0        3876682925.0
Wiener process for Thermostat # 4        1 F T T  -8.4605691921593495E-01        1848500622.0        2430989213.0         128481919.0        1758362334.0        1669504820.0        3668062335.0        2338701263.0        1119171942.0        2570676563.0         317077452.0        3194180850.0         618832124.0        2338701263.0        1119171942.0        2570676563.0         317077452.0        3194180850.0         618832124.0
Wiener process for Thermostat # 5        1 F T T  -4.3979151688820323E-01        3623471984.0        1592950223.0         198906146.0        2292377289.0         875075153.0         165724270.0        1597262096.0        3906379055.0        3312112953.0        1016013135.0        4099474108.0         275305423.0        1597262096.0        3906379055.0        3312112953.0        1016013135.0        4099474108.0         275305423.0
Wiener process for Thermostat # 6        1 F T T   5.0744192854705805E-01        2563050479.0         322903417.0        2248959552.0        4019832656.0        2090576119.0        2280957448.0          97147054.0        3131372450.0         829345164.0        3691032523.0        3006063034.0        4259826321.0          97147054.0        3131372450.0         829345164.0        3691032523.0        3006063034.0        4259826321.0
Wiener process for Thermostat # 7        1 F T T  -3.5183803004167324E-01        1524653349.0        3305478686.0        1442438582.0        1745317286.0        2741809111.0        1112838386.0         796079799.0        2105258207.0         955365076.0        2923159030.0        4116632677.0        3067683584.0         796079799.0        2105258207.0         955365076.0        2923159030.0        4116632677.0        3067683584.0
Wiener process for Thermostat # 8        1 F T T   2.8940868121509521E-03        2983651364.0         459227790.0         325692363.0        2787583560.0        2588789312.0         766265919.0        3281794178.0        2616230133.0        1457051261.0        2762791137.0        2480527362.0        2282316169.0        3281794178.0        2616230133.0        1457051261.0        2762791137.0        2480527362.0        2282316169.0
Wiener process for Thermostat # 9        1 F T T  -1.0434970109384378E+00        1805219080.0         952490748.0         857694933.0        3333266350.0        3659808765.0        2469399365.0        3777646647.0        1837464056.0        4204654757.0         664239048.0        4190510072.0        2959195122.0        3777646647.0        1837464056.0        4204654757.0         664239048.0        4190510072.0        2959195122.0
Wiener process for Thermostat # 10       1 F T T   1.6709143374837316E+00        2189218587.0        1344401264.0        4107231927.0        3013492696.0        2432325771.0        1253992406.0        4215590817.0        3862461878.0        1087200967.0        1544910132.0         936383720.0        1611370123.0        4215590817.0        3862461878.0        1087200967.0        1544910132.0         936383720.0        1611370123.0
Wiener process for Thermostat # 11       1 F T T  -1.0280251756336396E+00         897489844.0         723258865.0         559111785.0        2836117244.0        3718334254.0        2215720393.0        1683636369.0         362165168.0         814316280.0         869382050.0         980203903.0        2062101717.0        1683636369.0         362165168.0         814316280.0         869382050.0         980203903.0        2062101717.0
Wiener process for Thermostat # 12       1 F T T   4.5855290891928180E-01        3576663182.0        3605828081.0        1994216132.0        2055774177.0        1317537421.0        1685785006.0         272317999.0         166758548.0         310112982.0         201045826.0        1680231254.0         118290799.0         272317999.0         166758548.0         310112982.0         201045826.0        1680231254.0         118290799.0
Wiener process for Thermostat # 13       1 F T T   4.9634343745565257E-01        3771072709.0        3830991415.0        3825514743.0        3974436725.0        1348723601.0        1346235777.0        2245755202.0        1652682525.0        2865544364.0         721509566.0         209733568.0         592362218.0        2245755202.0        1652682525.0        2865544364.0         721509566.0         209733568.0         592362218.0