 # Version information for this restart file 
 # current date 2024-11-21 19:38:04.139
 # current working dir /scratch/work/courses/CHEM-GA-2671-2024fa/students/ap8064/comp-lab-class-2024/Week12-IntroAIMD/Runs/Proton
 # Program compiled at                              Sat Dec 12 18:27:15 EST 2020
 # Program compiled on                                         cs001.nyu.cluster
 # Program compiled for                                                nyu-intel
 # Source code revision number                                       git:8c64c6e
 &GLOBAL
   PRINT_LEVEL  LOW
   PROJECT_NAME proton_new_
   RUN_TYPE  MD
   WALLTIME 21600
 &END GLOBAL
 &MOTION
   &GEO_OPT
     OPTIMIZER  BFGS
     MAX_ITER  100
     MAX_DR     3.0000000000000001E-03
     &BFGS
     &END BFGS
   &END GEO_OPT
   &MD
     ENSEMBLE  NVT
     STEPS  2000
     TIMESTEP     4.9999999999999994E-01
     STEP_START_VAL  1000
     TIME_START_VAL     4.9999999999999636E+02
     ECONS_START_VAL    -1.1025841879244936E+03
     TEMPERATURE     3.0000000000000000E+02
     &THERMOSTAT
       TYPE  GLE
       REGION  MASSIVE
       &GLE
         NDIM  5
         A_SCALE     1.0000000000000000E+00
         A_LIST     1.8595758612559999E+02    2.7263853498399998E-01    1.1526100454610001E+01   -3.6414578262600003E+01 \
             2.3173375816020001E+02
         A_LIST    -2.7809524712060002E-01    8.5951591808710006E-05    7.2189048017650004E-01   -1.9844539343859999E-01 \
             4.2409257583420001E-01
         A_LIST    -1.4825808131210000E+01   -7.2189048017650004E-01    1.3590902121280000E+00    5.1498896280349999E+00 \
            -9.9949268450990001E+00
         A_LIST    -1.0372189126880000E+01    1.9844539343859999E-01   -5.1498896280349999E+00    2.6661910891169999E+01 \
             1.1507715495310000E+01
         A_LIST     2.1801346360420001E+02   -4.2409257583420001E-01    9.9949268450990001E+00   -1.1507715495310000E+01 \
             3.0958394565589998E+02
         &THERMOSTAT_ENERGY
               6.5778612760101585E-04
               2.1728918985600569E-04
              -3.9098087534095586E-03
               1.9827048430349200E-05
              -6.1924983227965727E-03
               1.6340492419656856E-03
              -2.3230983424059447E-03
               2.7658328698893968E-03
               5.7729178639003382E-03
               5.3238453720810411E-03
               1.0903863359260092E-02
              -2.0149019159691503E-03
              -2.0218966777270668E-03
              -5.2034540355778251E-03
               2.1136039522708029E-03
              -7.9828584063047058E-03
               4.2943298255238519E-03
              -2.6902737859003994E-03
               2.5766347695687082E-03
              -2.4371380170324134E-03
               6.1409722278614239E-03
               3.4891003888168960E-03
              -6.8521333258005340E-03
               3.8477176494646360E-04
              -2.7822407512189304E-03
              -1.0109360859679289E-02
               5.3732212210904544E-04
               3.2930820542972153E-03
               1.9032492651880708E-03
               3.5655183673724894E-03
              -7.4667515480988161E-03
               8.1895735850370680E-04
               6.3359923254047044E-03
               2.3108725408448770E-03
              -1.4576721574092651E-02
               1.1551372738841298E-02
              -2.4429452415105374E-03
               8.3726264826287748E-04
               4.1727673549185199E-03
              -7.8538906832757577E-03
               2.9027771531867862E-03
              -6.9276721547606955E-04
               4.5285193723680157E-03
               8.4308274532542277E-03
              -7.2939909827170069E-03
              -4.7410781500890328E-04
               6.9164576187409647E-03
               1.7048026149302563E-03
              -1.0129778959357951E-05
              -4.4348345698202582E-03
               1.5610168798516921E-03
              -1.2333932543330643E-03
              -3.3848857898778014E-03
               1.9786461064292748E-03
              -1.9183195520800153E-03
               2.1344916366065427E-03
              -5.7826248555196340E-04
               1.9670198779767204E-03
               4.3565987696446949E-03
               2.2607390894347538E-03
              -5.1988320942197540E-03
              -5.8553532396882072E-04
               1.2527217449948070E-02
               1.1534760666668843E-03
               2.7799466537648931E-04
               2.7233617693379866E-03
              -5.8628412198892567E-03
               1.0852453183708886E-02
               6.9108164314816310E-03
               1.5890170678356343E-03
               3.6259956739605622E-03
              -1.1261366150539619E-02
               3.5052710391604461E-04
               8.8829388705632104E-04
              -1.4589934973395519E-03
              -3.8107031224563757E-03
               1.0836638666131011E-03
               8.7248376034611986E-03
               4.5547588053380383E-03
              -5.7186009744805751E-03
              -4.1400612853351073E-04
              -2.0822065422019345E-03
               1.6550443981373725E-03
              -9.3170088704560715E-04
               6.3638713300360117E-03
               6.0221498942147657E-03
              -5.0418894520494126E-03
               2.2688717317839004E-03
               4.7941031423551876E-03
              -6.1429250037239322E-03
               1.3829418914368353E-03
              -6.5833720780111389E-03
              -4.9890653816975173E-04
              -1.8697024197344891E-03
              -1.1332241490854033E-02
               5.2346348770360585E-03
               5.6749561308659865E-03
               4.4517337837014651E-03
               5.2763869399440454E-03
               4.0532438323711431E-03
              -3.4645749405267314E-03
              -7.7997251973959923E-03
              -3.2833794726676293E-03
              -4.4949268150044994E-03
               2.2510184390278861E-03
               2.5805495572257769E-03
              -7.0051019980803329E-04
               3.7771208013618472E-03
               4.4760232697186684E-03
              -3.7949857537813506E-03
               1.2759686531802125E-03
              -3.1710750023868891E-03
               3.0610217374415238E-03
               7.6238766551602723E-03
               7.1101764421249592E-03
               2.2108013494204779E-03
              -1.1700358214725572E-02
               1.5075578228005940E-03
              -1.8022833672341563E-03
              -1.0011528390411488E-04
               1.9039656086512042E-05
               9.2653428957645730E-03
               8.5551011917422894E-05
               4.6314259145362122E-03
              -7.1589994365195879E-03
              -5.0697824957572375E-03
              -2.8759114420651247E-04
               2.3472853855857545E-03
               1.1434411983088991E-02
               5.0169572932067001E-03
              -8.2331660494115132E-03
               8.4658611301316432E-03
               5.1292824138004936E-03
               2.6044934704485328E-03
               1.6626322111127686E-03
               1.6822398253002317E-03
              -4.6198745932611958E-03
              -2.8902704028699482E-03
               2.1831089404871834E-03
              -4.3394300805699431E-03
               6.8021480734348060E-03
              -3.1240076798197595E-05
               5.5316214591980169E-03
              -4.1747280327711208E-03
               1.7633867730031891E-03
              -3.8473123153042604E-03
               4.1375102390690715E-03
               2.9265855512483488E-03
              -1.0836073757243029E-02
               1.0041592999511906E-02
               5.3322394741936235E-04
               2.4561395302947217E-04
               1.2151765242910129E-04
               2.2165520268694764E-03
               2.8215629199640066E-03
               3.5426171631260019E-04
               1.4535915980176269E-03
              -3.7719018260655313E-03
              -2.2031296912917594E-03
               5.8486500928001100E-03
              -3.9635650251144926E-03
              -7.2531234449678666E-04
               1.2125831930118384E-03
              -1.7894840505370044E-06
               6.9443635040002559E-03
               5.2455926484479359E-02
               3.9884907104358620E-03
               1.5659070747743691E-02
               3.3026694238315175E-02
               1.6775587726977292E-02
               7.0332711921876567E-02
               1.2873656869374379E-02
               1.2413251591727283E-03
               3.3107966684896531E-02
              -2.1266785761131753E-03
               5.2928040679227123E-04
              -2.1467600627435223E-03
               1.9460275897857056E-03
              -5.2846041131414303E-03
              -3.9348317728911796E-03
              -9.2141690095721568E-03
               4.6206216294394139E-03
               6.7199084804696590E-03
              -7.0269039426158354E-03
               6.9907262953306860E-04
              -1.2591824501699464E-03
               5.3225226654764445E-03
               5.6730549295996684E-04
              -5.2969259217132466E-03
              -5.3998859934520915E-03
              -2.7688880035750267E-03
               1.1990099535769697E-02
               1.7178784006799330E-03
              -5.0320913402605583E-03
               1.6811861016210370E-03
               9.1285320898800010E-03
              -3.9040798752257447E-03
              -2.0395086243705065E-03
               1.4546685019693906E-03
              -6.2453932224104088E-03
               4.1632593409482721E-03
               4.4386896423427992E-05
               1.6518602530417880E-03
               3.3134912243891344E-03
              -2.6649707474485471E-03
              -5.4814717095021887E-03
               4.3940868801039248E-03
               8.2632956580060059E-03
              -1.0122543902191545E-03
               7.4457852758416359E-03
              -2.3195893214770914E-03
               2.4111446782775362E-03
               4.9691284842469149E-03
               3.6466682317639232E-03
              -7.7050935078338224E-03
               1.0332884367996330E-03
              -6.8730886402572355E-03
               6.2107265481289543E-03
               6.3536938709885891E-03
               2.9329282671909608E-03
               1.9618311835043344E-03
              -1.7798562243567808E-03
              -6.8911319005520687E-03
              -2.1580561761826138E-03
               8.1629453494081270E-03
               1.5556803038061435E-03
               3.8139689357712496E-03
               5.5658445348943271E-06
              -4.1266907008061082E-03
              -3.5449424039956062E-03
              -2.6070371126303660E-03
               7.2652225026148863E-03
               9.2540354721977157E-03
              -2.3967169934071501E-03
              -3.2596611069114728E-03
               8.1097175081837705E-04
               1.6091811994828837E-03
               2.8551047615788575E-03
              -2.1395962350002455E-03
              -1.5778343276868891E-03
               1.7245105826822818E-03
               5.6057869333275487E-03
               1.4995233955531185E-03
               6.9120258388283909E-03
              -5.6445213453107691E-03
              -2.3188727023776160E-04
              -2.6036249235357944E-03
               1.3170128945930520E-03
              -3.0609361976869187E-03
              -9.1378270213675556E-04
               1.1239529835489373E-03
               1.7138240809064467E-04
              -2.3329610571654622E-03
              -7.2373274985370970E-03
               2.9711474685294660E-03
              -1.6917320657738942E-03
              -2.2575006546436687E-03
              -1.4266485679981077E-03
              -4.9798718852446652E-03
               2.4967684823436402E-03
               6.3218244370643242E-03
               4.3792858277927303E-03
               5.5562468826776670E-03
               3.7198676204562749E-04
               5.7144357828242329E-04
               6.8161937663096606E-04
               2.8457901748336701E-03
              -2.2426568450903015E-03
              -8.1555943601254420E-03
               9.5818238780056124E-03
              -3.8394775414306100E-03
              -2.0810658285102665E-03
               8.1298876990098766E-03
               1.8900639478940250E-03
              -8.4292140576340763E-04
               4.4080058614341021E-04
              -9.5538704774886709E-03
               9.0900694900453802E-03
               4.6481941791954211E-03
              -3.3401706182443385E-03
               2.9070628393285409E-03
              -7.6145553088973741E-03
               8.4057938036344280E-03
              -3.9499315758652230E-03
               4.4500439409424549E-03
               6.3062015184833032E-03
              -4.4027256113272264E-03
              -5.1123130745497495E-03
              -5.7425850520211831E-03
               3.0672132859680501E-03
              -4.4031660338332242E-04
               2.8413649004427051E-04
               4.5264730563387683E-03
               3.4766130560863950E-03
               2.5042809566397910E-03
               6.5003606974476900E-03
              -1.4267065879186320E-03
               1.0872590734837505E-02
              -2.6415183516272485E-04
              -1.0431935092045664E-02
               5.9287383689251595E-04
              -1.8250480144304138E-03
               4.6399250747924089E-03
               4.0161297668575855E-03
              -8.1019665095878677E-04
              -3.9232488409267872E-03
               5.1487044667856074E-04
              -7.5297576745828850E-03
               3.9418858809138202E-03
               7.7260687442650185E-03
              -1.8008116957779524E-03
              -3.3659677241555993E-03
               1.1429109559995292E-04
               2.5606283523611504E-03
               3.1682856907673186E-03
              -4.8308443634944454E-03
              -6.7292845768937692E-03
               3.8265740915059418E-03
              -4.3385653817975354E-03
              -4.5245219333890450E-03
               1.6394924133786416E-03
               9.8964759908479433E-04
               3.2355891297188586E-03
               2.4042261395674982E-04
               4.9683671228227891E-04
              -1.0903224425385250E-03
               3.5669342197146921E-03
               5.1382353631759855E-03
               5.5191731889855553E-04
               1.7585483892142068E-03
              -4.8308572595108417E-03
               1.4713368649378817E-04
               1.1937450942941985E-03
              -4.2767775903172680E-04
              -5.2059691400764847E-03
               2.4110339863011991E-03
               5.4128820963799378E-03
              -3.1527123434767212E-04
               7.7170513702782000E-04
               3.2214418018256604E-03
              -7.7736145566555991E-03
               1.8336134141091765E-04
               2.5003260463836428E-03
               4.9366788053659917E-03
               3.1505036808196661E-03
               5.5390000080655010E-03
               1.3542909911648127E-03
              -5.4646470518808559E-03
               1.0050951868357645E-02
              -3.7794417368918298E-03
              -1.9921986424455687E-03
               2.7203359649056727E-03
              -8.5947188703999044E-03
               3.4389111302112751E-03
              -4.3818096498128394E-03
              -3.1858448756597576E-03
               9.2833053551926998E-04
               4.9230652443706096E-03
              -9.3932742455129555E-03
               1.5729225532834629E-03
               1.2938999792711787E-03
               3.1773232248519748E-03
               5.4818894565494304E-03
              -3.5320619062586102E-03
              -9.8948853833417325E-03
               5.1736362599151299E-03
               1.1873566562091402E-02
               3.7057437350605008E-03
              -1.2590688424196370E-02
              -1.5401834658442166E-03
              -1.5481289405114714E-03
               1.6090144191321454E-03
              -5.9325570322230222E-04
               4.7780024924383549E-04
               6.6052409245552154E-04
              -4.3858824149170016E-03
              -5.5442983421857142E-03
              -5.1897975973224280E-03
              -1.0707686928892153E-03
               4.8074428097123947E-03
               3.1435466299004891E-03
              -8.5789987914532270E-04
              -1.1968388060862309E-03
              -1.5054574483277237E-03
              -1.1695940534769167E-02
               2.8580642947081728E-03
               4.1517103001122036E-03
               2.7571805251507442E-03
              -1.1266510786534054E-04
               3.3880022371785405E-03
              -3.2446296259500593E-03
               9.6622364349613766E-04
              -2.6426788486546135E-03
              -5.5957691545443135E-03
               4.4094449070136016E-03
               1.4064482191230763E-03
               2.1811647389757766E-03
               9.6532276084906107E-04
               1.0357764537013757E-03
              -4.5632239542246879E-03
              -2.7084563621517900E-03
              -2.3974243844980536E-03
              -5.0825830574709695E-04
              -2.4791630225212902E-04
               4.4650566326022486E-03
               3.4501855221882398E-03
               9.1510792128954668E-04
              -6.0415520345319315E-03
              -2.1262054214123416E-03
               1.6913896188862118E-03
               1.9774911059702487E-03
              -3.1901066792260633E-03
              -3.9961793403920861E-04
              -5.1903929382705544E-03
               3.2409058806386914E-03
               1.0011714774461758E-03
              -5.1162686435500832E-03
              -2.3248794976030588E-03
              -3.4370637818220582E-03
               1.8865574446296923E-03
               1.2321600017530287E-03
              -1.8949816322275186E-03
              -2.4449491946458924E-03
              -6.1033876142493405E-04
               8.7842832436293115E-03
              -3.9244329446498664E-03
               2.1599982124833718E-03
              -5.2188876970778349E-03
               2.1169574975727196E-03
               7.4369947149412995E-03
              -5.2348047036421090E-03
              -6.0840846202393339E-03
              -7.8530841982478884E-03
               5.5934500916207794E-03
               6.0213810747278673E-03
               2.4390495548085147E-03
              -1.9729086308412987E-03
              -2.7093448824800225E-03
               5.4684249911411112E-05
              -3.0664099712366540E-03
               5.8967172051170432E-03
              -2.4340985321636569E-03
              -1.4127349019164902E-03
               6.3864930988973582E-03
               2.7544480224611237E-03
               6.9630588463422153E-03
               3.0995257443960046E-03
               1.7762426193508871E-03
               2.0630464352477812E-03
              -7.2410592299956772E-03
              -1.0865201916644687E-03
              -5.8437241273804515E-03
               2.7292615541287058E-03
              -3.1286870529349461E-03
              -1.6736255214323929E-03
              -3.8306924196308146E-03
              -6.2425514726428682E-03
               3.3943651488329801E-03
              -5.4547212262444199E-03
               7.6700577581712893E-04
               6.1092233643104850E-03
               9.0638790543113752E-03
               1.1487568091851229E-03
               4.1941270060160164E-03
               5.1228704635723314E-03
               5.8455701468742172E-03
              -8.6039104240080786E-04
              -7.6026673067710248E-03
               3.0507228816324511E-03
              -1.3496979655396235E-03
               2.1564733499911180E-03
               2.5142519781909639E-03
               1.2526600290845916E-04
              -1.2711087402574319E-03
              -4.2497906677672007E-03
               3.3790317719520216E-03
              -3.2607066030243045E-03
              -3.0967928676567711E-04
              -2.7286648210746874E-03
               2.4420232971107928E-03
              -2.1591582878567679E-03
               1.3907450508742990E-03
               3.6895036131768862E-03
               3.6500076789515580E-03
               4.0724487280824210E-03
              -1.1743959111638472E-04
              -2.1798221919553163E-04
              -3.8956713261016781E-03
               7.0561650923967678E-03
               2.0060838671286986E-04
               5.0595076469158754E-03
               4.8329980064923126E-03
               2.9669957767126374E-03
              -8.5494738590209708E-03
               1.8876386968671543E-03
              -1.5615524308962971E-03
               1.5341013589119741E-03
               1.5564706490127373E-03
               5.4963798552806458E-03
               2.3815753656033925E-03
              -3.2142772614403353E-03
               4.1943213483003451E-03
              -1.0279924353648648E-02
               1.7570035845501829E-02
              -3.2924805796080525E-03
              -4.0043051879334012E-03
              -4.2584271553140346E-03
               3.2062172774510939E-04
               2.5701271042361125E-03
              -1.5095710396244883E-03
              -1.4377227392718421E-03
               1.5764169898404643E-03
              -2.0109872539838761E-03
              -1.1238554166301743E-02
               1.4096447119328502E-02
              -9.3738650387842209E-03
              -1.8246727350560415E-03
               1.1841984134094475E-03
               3.0045185069503249E-03
               1.7167825561524653E-03
              -1.2536494365542638E-02
               3.9617191234014183E-03
               1.9950056748082022E-03
               5.5025061376647935E-03
               2.7310055300632037E-03
               2.5630674439865923E-03
               3.3016322923446460E-04
              -2.5780128887424798E-04
               5.0144537076744419E-04
               4.1790757941198280E-03
               1.0727989251662202E-02
              -1.6046280155120219E-03
               5.3608433651793715E-04
              -3.4016529702530097E-04
               1.6083251668926829E-03
               1.0971217518954393E-03
               7.7667636923937249E-04
              -3.9369200096601685E-03
              -4.8706707000924980E-04
               8.0069660070750878E-03
              -2.6569432507864876E-03
              -8.5150149845772839E-04
              -8.1370287730460414E-03
               1.8073159277800981E-03
               1.4145372308559585E-03
              -3.2707609207400143E-03
               6.4027797436054688E-03
              -2.4539293449739128E-03
               3.6676781743221493E-03
               2.4956630799298175E-03
              -4.1734839613415722E-04
              -9.9670425229548224E-03
              -1.4807234071557566E-03
              -3.2845905322187482E-03
               2.1505575685587010E-03
              -6.0793074914291187E-03
              -1.8257081852953486E-03
              -3.7081119253857694E-03
               7.6079091015575267E-03
               3.8484521681397463E-04
               7.6287764421592045E-03
               3.1220971988619338E-03
               5.8905940769531486E-03
               2.4146147853987745E-03
              -5.7410861387588606E-03
              -9.6273549556780255E-04
               2.7545733437787526E-03
               1.7904942921528827E-03
               3.4301085933258518E-03
               6.6667109119922924E-04
              -2.1303417586665389E-03
              -1.8942279703514470E-03
              -4.0700943680813699E-03
              -7.5414072779929411E-03
               4.5055843631727349E-03
               9.8317917055459631E-04
               1.2681444608931986E-02
               8.6310940214352483E-03
              -1.0909491637848760E-02
         &END THERMOSTAT_ENERGY
         &RNG_INIT
Wiener process for Thermostat # 1        1 F T T  -9.8236738167888460E-01         226733040.0        4248387519.0        1164353849.0        2758509449.0        3644127687.0        1764793484.0             12345.0             12345.0             12345.0             12345.0             12345.0             12345.0             12345.0             12345.0             12345.0             12345.0             12345.0             12345.0
Wiener process for Thermostat # 2        1 F T T  -1.4171306107827426E+00        1528154308.0        2775625301.0         197130159.0        1452211673.0        1835562137.0        1983376171.0        3692455944.0        1366884236.0        2968912127.0         335948734.0        4161675175.0         475798818.0        3692455944.0        1366884236.0        2968912127.0         335948734.0        4161675175.0         475798818.0
Wiener process for Thermostat # 3        1 F T T   8.6049543281786645E-01        2248570378.0        1724762616.0          52903713.0        3229622658.0        3199004837.0        4241126217.0        1015873554.0        1310354410.0        2249465273.0         994084013.0        2912484720.0        3876682925.0        1015873554.0        1310354410.0        2249465273.0         994084013.0        2912484720.0        3876682925.0
Wiener process for Thermostat # 4        1 F T T  -1.5460863137690717E+00         957380376.0         510326667.0        2247033635.0        2033071685.0        3054261466.0        3462352516.0        2338701263.0        1119171942.0        2570676563.0         317077452.0        3194180850.0         618832124.0        2338701263.0        1119171942.0        2570676563.0         317077452.0        3194180850.0         618832124.0
Wiener process for Thermostat # 5        1 F T T   1.5428690481661575E-01        4203301200.0         738999836.0        1485820986.0          20648636.0        2223680357.0        4294941489.0        1597262096.0        3906379055.0        3312112953.0        1016013135.0        4099474108.0         275305423.0        1597262096.0        3906379055.0        3312112953.0        1016013135.0        4099474108.0         275305423.0
Wiener process for Thermostat # 6        1 F T T   7.0411917217518150E-01        1265311014.0        3687607523.0        1792102642.0         142025920.0         459804801.0        1211121065.0          97147054.0        3131372450.0         829345164.0        3691032523.0        3006063034.0        4259826321.0          97147054.0        3131372450.0         829345164.0        3691032523.0        3006063034.0        4259826321.0
Wiener process for Thermostat # 7        1 F T T  -9.5744195640119531E-02        4040223344.0        4246262317.0         329086624.0          28777921.0        2946509694.0        1489700490.0         796079799.0        2105258207.0         955365076.0        2923159030.0        4116632677.0        3067683584.0         796079799.0        2105258207.0         955365076.0        2923159030.0        4116632677.0        3067683584.0
Wiener process for Thermostat # 8        1 F T T  -1.2413826789147817E-01         252045112.0        2848200345.0         154646410.0        1271924195.0        1873079261.0        3351978939.0        3281794178.0        2616230133.0        1457051261.0        2762791137.0        2480527362.0        2282316169.0        3281794178.0        2616230133.0        1457051261.0        2762791137.0        2480527362.0        2282316169.0
Wiener process for Thermostat # 9        1 F T T   1.0331244080464512E+00        3784506675.0        1914172684.0        3527875272.0        1610827989.0        3855196701.0        1117597481.0        3777646647.0        1837464056.0        4204654757.0         664239048.0        4190510072.0        2959195122.0        3777646647.0        1837464056.0        4204654757.0         664239048.0        4190510072.0        2959195122.0
Wiener process for Thermostat # 10       1 F T T   2.1466585360569199E-01        3057685686.0        2869029583.0         411221469.0        2821893460.0         322924656.0        1143227575.0        4215590817.0        3862461878.0        1087200967.0        1544910132.0         936383720.0        1611370123.0        4215590817.0        3862461878.0        1087200967.0        1544910132.0         936383720.0        1611370123.0
Wiener process for Thermostat # 11       1 F T T  -4.4132046785776799E-02        1554543736.0        2717576499.0        4135075403.0        2618383353.0         642871762.0         249586537.0        1683636369.0         362165168.0         814316280.0         869382050.0         980203903.0        2062101717.0        1683636369.0         362165168.0         814316280.0         869382050.0         980203903.0        2062101717.0
Wiener process for Thermostat # 12       1 F T T  -5.6161533877704317E-01        1770324141.0        3770017049.0         190859559.0         764828178.0        2918138424.0         736540625.0         272317999.0         166758548.0         310112982.0         201045826.0        1680231254.0         118290799.0         272317999.0         166758548.0         310112982.0         201045826.0        1680231254.0         118290799.0
Wiener process for Thermostat # 13       1 F T T   9.7554409384929153E-01        3627045108.0        1898589428.0        2752141753.0          85759421.0        2499273175.0        1137986601.0        2245755202.0        1652682525.0        2865544364.0         721509566.0         209733568.0         592362218.0        2245755202.0        1652682525.0        2865544364.0         721509566.0         209733568.0         592362218.0